*SPEF "1481-1998"
*DESIGN "uart"
*DATE "Mon Aug 31 22:06:20 2026"
*VENDOR "Synopsys, Inc."
*PROGRAM "icc2 /home/synopsys/icc2/O-2018.06-SP1/linux64/nwtn/bin/icc2_exec"
*VERSION "O-2018.06-SP1 Jul 17, 2018"
*DESIGN_FLOW "ICC2 SPEF DR"
*DIVIDER /
*DELIMITER :
*T_UNIT 1 NS
*C_UNIT 1 FF
*R_UNIT 1 OHM
*L_UNIT 1 HENRY

// XY_UNIT 1 UM
// PARASITIC_TECH tlup_max at 125.000 degree

*NAME_MAP
*1 clk
*2 rst_n
*3 p_data[7]
*4 p_data[6]
*5 p_data[5]
*6 p_data[4]
*7 p_data[3]
*8 p_data[2]
*9 p_data[1]
*10 p_data[0]
*11 data_valid
*12 par_en
*13 par_typ
*14 tx_out
*15 busy
*16 rx_in
*17 rx_p_data[10]
*18 rx_p_data[9]
*19 rx_p_data[8]
*20 rx_p_data[7]
*21 rx_p_data[6]
*22 rx_p_data[5]
*23 rx_p_data[4]
*24 rx_p_data[3]
*25 rx_p_data[2]
*26 rx_p_data[1]
*27 rx_p_data[0]
*28 rx_data_valid
*29 VSS_1
*30 VDD_1
*31 VDD
*32 VSS
*33 baud_cnt_reg_0_
*34 baud_cnt_reg_1_
*35 U5
*36 uart_rx_inst/placeHFSINV_513_2
*37 baud_cnt_reg_2_
*38 U6
*39 uart_rx_inst/placeHFSBUF_2576_4
*40 U9
*41 U10
*42 uart_rx_inst/uart_rx_data_sampling_blk/placeHFSINV_816_5
*43 uart_tx_inst/uart_tx_controller_mod/U10
*44 uart_tx_inst/uart_tx_controller_mod/U11
*45 uart_tx_inst/uart_tx_controller_mod/U12
*46 uart_tx_inst/uart_tx_controller_mod/U13
*47 uart_tx_inst/uart_tx_controller_mod/U14
*48 uart_tx_inst/uart_tx_controller_mod/U15
*49 uart_tx_inst/uart_tx_controller_mod/U16
*50 uart_tx_inst/uart_tx_controller_mod/U17
*51 uart_tx_inst/uart_tx_controller_mod/U18
*52 uart_tx_inst/uart_tx_controller_mod/U19
*53 uart_tx_inst/uart_tx_controller_mod/U20
*54 uart_tx_inst/uart_tx_controller_mod/U21
*55 uart_tx_inst/uart_tx_controller_mod/U22
*56 uart_tx_inst/uart_tx_controller_mod/U23
*57 uart_tx_inst/uart_tx_controller_mod/U24
*58 uart_tx_inst/uart_tx_controller_mod/U25
*59 uart_tx_inst/uart_tx_controller_mod/U26
*60 uart_tx_inst/uart_tx_controller_mod/U27
*61 uart_tx_inst/uart_tx_controller_mod/U28
*62 uart_tx_inst/uart_tx_controller_mod/state_reg[2]
*63 uart_tx_inst/uart_tx_controller_mod/state_reg[1]
*64 uart_tx_inst/uart_tx_controller_mod/state_reg[0]
*65 uart_tx_inst/uart_tx_controller_mod/U3
*66 uart_tx_inst/uart_tx_controller_mod/U4
*67 uart_tx_inst/uart_tx_controller_mod/U5
*68 uart_tx_inst/uart_tx_controller_mod/U6
*69 uart_tx_inst/uart_tx_controller_mod/U7
*70 uart_tx_inst/uart_tx_controller_mod/U8
*71 uart_tx_inst/uart_tx_parity_bit_mod/par_bit_reg
*72 uart_tx_inst/uart_tx_parity_bit_mod/U4
*73 uart_tx_inst/uart_tx_parity_bit_mod/U5
*74 uart_tx_inst/uart_tx_parity_bit_mod/U6
*75 uart_tx_inst/uart_tx_parity_bit_mod/U7
*76 uart_tx_inst/uart_tx_parity_bit_mod/U8
*77 uart_tx_inst/uart_tx_serializer_mod/ser_data_reg
*78 uart_tx_inst/uart_tx_serializer_mod/ser_counter_reg[1]
*79 uart_tx_inst/uart_tx_serializer_mod/ser_counter_reg[2]
*80 uart_tx_inst/uart_tx_serializer_mod/ser_done_reg
*81 uart_tx_inst/uart_tx_serializer_mod/U5
*82 uart_tx_inst/uart_tx_serializer_mod/U6
*83 uart_tx_inst/uart_tx_serializer_mod/U7
*84 uart_tx_inst/uart_tx_serializer_mod/U8
*85 uart_tx_inst/uart_tx_serializer_mod/U9
*86 uart_tx_inst/uart_tx_serializer_mod/U10
*87 uart_tx_inst/uart_tx_serializer_mod/U11
*88 uart_tx_inst/uart_tx_serializer_mod/ser_counter_reg[0]
*89 uart_tx_inst/uart_tx_serializer_mod/U3
*90 uart_tx_inst/uart_tx_serializer_mod/U4
*91 uart_tx_inst/uart_tx_serializer_mod/U12
*92 uart_tx_inst/uart_tx_serializer_mod/U13
*93 uart_tx_inst/uart_tx_serializer_mod/U14
*94 uart_tx_inst/uart_tx_serializer_mod/U15
*95 uart_tx_inst/uart_tx_serializer_mod/U16
*96 uart_tx_inst/uart_tx_serializer_mod/U17
*97 uart_tx_inst/uart_tx_serializer_mod/U18
*98 uart_tx_inst/uart_tx_mux4x1_mod/U3
*99 uart_tx_inst/uart_tx_mux4x1_mod/U4
*100 uart_tx_inst/uart_tx_mux4x1_mod/U5
*101 uart_tx_inst/uart_tx_mux4x1_mod/U1
*102 uart_tx_inst/uart_tx_mux4x1_mod/U2
*103 uart_rx_inst/placeHFSINV_738_9
*104 uart_rx_inst/placeHFSINV_1162_0
*105 uart_rx_inst/uart_rx_deserializer_blk/placeHFSINV_130_6
*106 uart_rx_inst/uart_rx_controller_blk/state_reg[0]
*107 uart_rx_inst/uart_rx_controller_blk/state_reg[2]
*108 uart_rx_inst/uart_rx_controller_blk/state_reg[1]
*109 uart_rx_inst/uart_rx_controller_blk/U7
*110 uart_rx_inst/uart_rx_controller_blk/U24
*111 uart_rx_inst/uart_rx_controller_blk/U25
*112 uart_rx_inst/uart_rx_controller_blk/U26
*113 uart_rx_inst/uart_rx_controller_blk/U27
*114 uart_rx_inst/uart_rx_controller_blk/U28
*115 uart_rx_inst/uart_rx_controller_blk/U30
*116 uart_rx_inst/uart_rx_controller_blk/U31
*117 uart_rx_inst/uart_rx_controller_blk/U32
*118 uart_rx_inst/uart_rx_controller_blk/U33
*119 uart_rx_inst/uart_rx_controller_blk/U34
*120 uart_rx_inst/uart_rx_controller_blk/U35
*121 uart_rx_inst/uart_rx_controller_blk/U36
*122 uart_rx_inst/uart_rx_controller_blk/U37
*123 uart_rx_inst/uart_rx_controller_blk/U38
*124 uart_rx_inst/uart_rx_controller_blk/U39
*125 uart_rx_inst/uart_rx_controller_blk/U40
*126 uart_rx_inst/uart_rx_controller_blk/U41
*127 uart_rx_inst/uart_rx_controller_blk/U42
*128 uart_rx_inst/uart_rx_controller_blk/U43
*129 uart_rx_inst/uart_rx_controller_blk/U44
*130 uart_rx_inst/uart_rx_controller_blk/U46
*131 uart_rx_inst/uart_rx_controller_blk/U47
*132 uart_rx_inst/uart_rx_controller_blk/U48
*133 uart_rx_inst/uart_rx_controller_blk/U49
*134 uart_rx_inst/uart_rx_controller_blk/U50
*135 uart_rx_inst/uart_rx_controller_blk/U51
*136 uart_rx_inst/uart_rx_controller_blk/U52
*137 uart_rx_inst/uart_rx_controller_blk/U53
*138 uart_rx_inst/uart_rx_controller_blk/U54
*139 uart_rx_inst/uart_rx_controller_blk/U55
*140 uart_rx_inst/uart_rx_controller_blk/U56
*141 uart_rx_inst/placeHFSINV_407_3
*142 uart_rx_inst/uart_rx_controller_blk/U4
*143 uart_rx_inst/uart_rx_controller_blk/U6
*144 uart_rx_inst/uart_rx_controller_blk/U8
*145 uart_rx_inst/uart_rx_controller_blk/U9
*146 uart_rx_inst/uart_rx_controller_blk/U10
*147 uart_rx_inst/uart_rx_controller_blk/U11
*148 uart_rx_inst/uart_rx_controller_blk/U12
*149 uart_rx_inst/uart_rx_controller_blk/U13
*150 uart_rx_inst/uart_rx_controller_blk/U14
*151 uart_rx_inst/uart_rx_controller_blk/U15
*152 uart_rx_inst/uart_rx_controller_blk/U16
*153 uart_rx_inst/placeHFSINV_341_7
*154 uart_rx_inst/uart_rx_controller_blk/U18
*155 uart_rx_inst/uart_rx_counters_blk/placeHFSINV_66_1
*156 uart_rx_inst/uart_rx_controller_blk/U21
*157 uart_rx_inst/uart_rx_controller_blk/U22
*158 uart_rx_inst/uart_rx_controller_blk/U45
*159 uart_rx_inst/uart_rx_counters_blk/edge_cnt_reg[0]
*160 uart_rx_inst/uart_rx_counters_blk/edge_cnt_reg[1]
*161 uart_rx_inst/uart_rx_counters_blk/edge_cnt_reg[2]
*162 uart_rx_inst/uart_rx_counters_blk/bit_cnt_reg[0]
*163 uart_rx_inst/uart_rx_counters_blk/bit_cnt_reg[1]
*164 uart_rx_inst/uart_rx_counters_blk/bit_cnt_reg[2]
*165 uart_rx_inst/uart_rx_counters_blk/bit_cnt_reg[3]
*166 uart_rx_inst/uart_rx_counters_blk/data_valid_cnt_reg[0]
*167 uart_rx_inst/uart_rx_counters_blk/data_valid_cnt_reg[1]
*168 uart_rx_inst/uart_rx_counters_blk/data_valid_cnt_reg[2]
*169 uart_rx_inst/uart_rx_counters_blk/U4
*170 uart_rx_inst/uart_rx_counters_blk/U6
*171 uart_rx_inst/uart_rx_counters_blk/U13
*172 uart_rx_inst/uart_rx_counters_blk/U14
*173 uart_rx_inst/uart_rx_counters_blk/U16
*174 uart_rx_inst/uart_rx_counters_blk/U17
*175 uart_rx_inst/uart_rx_counters_blk/U18
*176 uart_rx_inst/uart_rx_counters_blk/U20
*177 uart_rx_inst/uart_rx_counters_blk/U21
*178 uart_rx_inst/uart_rx_counters_blk/U22
*179 uart_rx_inst/uart_rx_counters_blk/U25
*180 uart_rx_inst/uart_rx_counters_blk/U26
*181 uart_rx_inst/uart_rx_counters_blk/U27
*182 uart_rx_inst/uart_rx_counters_blk/U29
*183 uart_rx_inst/uart_rx_counters_blk/U30
*184 uart_rx_inst/uart_rx_counters_blk/U31
*185 uart_rx_inst/uart_rx_counters_blk/U33
*186 uart_rx_inst/uart_rx_counters_blk/U34
*187 uart_rx_inst/uart_rx_counters_blk/U36
*188 uart_rx_inst/uart_rx_counters_blk/U3
*189 uart_rx_inst/uart_rx_stop_check_blk/placeHFSINV_28_8
*190 clockcopt_h_inst_297
*191 uart_rx_inst/uart_rx_counters_blk/U8
*192 uart_rx_inst/uart_rx_counters_blk/U9
*193 uart_rx_inst/uart_rx_counters_blk/U10
*194 uart_rx_inst/uart_rx_counters_blk/U11
*195 uart_rx_inst/uart_rx_counters_blk/U12
*196 uart_rx_inst/uart_rx_counters_blk/U15
*197 uart_rx_inst/uart_rx_counters_blk/U19
*198 uart_rx_inst/uart_rx_data_sampling_blk/three_samps_data_reg[2]
*199 uart_rx_inst/uart_rx_data_sampling_blk/three_samps_data_reg[1]
*200 uart_rx_inst/uart_rx_data_sampling_blk/three_samps_data_reg[0]
*201 uart_rx_inst/uart_rx_data_sampling_blk/sampled_bit_reg
*202 uart_rx_inst/uart_rx_data_sampling_blk/U3
*203 uart_rx_inst/uart_rx_data_sampling_blk/U4
*204 uart_rx_inst/uart_rx_data_sampling_blk/U5
*205 uart_rx_inst/uart_rx_data_sampling_blk/U7
*206 uart_rx_inst/uart_rx_data_sampling_blk/U9
*207 uart_rx_inst/uart_rx_data_sampling_blk/U11
*208 uart_rx_inst/uart_rx_data_sampling_blk/U13
*209 uart_rx_inst/uart_rx_data_sampling_blk/U15
*210 uart_rx_inst/uart_rx_data_sampling_blk/U17
*211 uart_rx_inst/uart_rx_data_sampling_blk/U19
*212 uart_rx_inst/uart_rx_data_sampling_blk/U20
*213 uart_rx_inst/uart_rx_data_sampling_blk/U6
*214 uart_rx_inst/uart_rx_data_sampling_blk/U8
*215 uart_rx_inst/uart_rx_data_sampling_blk/U10
*216 uart_rx_inst/placeZBUF_inst_11
*217 uart_rx_inst/placeZBUF_inst_37
*218 uart_rx_inst/uart_rx_data_sampling_blk/U16
*219 placeZBUF_inst_38
*220 uart_rx_inst/uart_rx_data_sampling_blk/U21
*221 uart_rx_inst/uart_rx_parity_check_blk/calc_par_bit_reg
*222 uart_rx_inst/uart_rx_parity_check_blk/U8
*223 uart_rx_inst/uart_rx_parity_check_blk/U9
*224 uart_rx_inst/uart_rx_parity_check_blk/U10
*225 uart_rx_inst/uart_rx_parity_check_blk/U11
*226 uart_rx_inst/uart_rx_parity_check_blk/U12
*227 uart_rx_inst/uart_rx_parity_check_blk/U13
*228 uart_rx_inst/uart_rx_parity_check_blk/U3
*229 uart_rx_inst/uart_rx_parity_check_blk/U4
*230 uart_rx_inst/uart_rx_controller_blk/clockcopt_h_inst_298
*231 uart_rx_inst/uart_rx_stop_check_blk/clockcopt_h_inst_299
*232 uart_rx_inst/uart_rx_parity_check_blk/U7
*233 uart_rx_inst/uart_rx_start_check_blk/str_glitch_reg
*234 uart_rx_inst/uart_rx_start_check_blk/U3
*235 uart_rx_inst/uart_rx_stop_check_blk/stp_err_reg
*236 uart_rx_inst/uart_rx_stop_check_blk/U3
*237 uart_rx_inst/placeZBUF_inst_16
*238 uart_rx_inst/uart_rx_deserializer_blk/p_data_temp_reg[7]
*239 uart_rx_inst/uart_rx_deserializer_blk/p_data_temp_reg[6]
*240 uart_rx_inst/uart_rx_deserializer_blk/p_data_temp_reg[5]
*241 uart_rx_inst/uart_rx_deserializer_blk/p_data_temp_reg[4]
*242 uart_rx_inst/uart_rx_deserializer_blk/p_data_temp_reg[3]
*243 uart_rx_inst/uart_rx_deserializer_blk/p_data_temp_reg[2]
*244 uart_rx_inst/uart_rx_deserializer_blk/p_data_temp_reg[1]
*245 uart_rx_inst/uart_rx_deserializer_blk/p_data_temp_reg[0]
*246 uart_rx_inst/uart_rx_deserializer_blk/U16
*247 uart_rx_inst/uart_rx_deserializer_blk/U17
*248 uart_rx_inst/uart_rx_deserializer_blk/U18
*249 uart_rx_inst/uart_rx_deserializer_blk/U19
*250 uart_rx_inst/uart_rx_deserializer_blk/U20
*251 uart_rx_inst/uart_rx_deserializer_blk/U21
*252 uart_rx_inst/uart_rx_deserializer_blk/U22
*253 uart_rx_inst/uart_rx_deserializer_blk/U23
*254 uart_rx_inst/uart_rx_deserializer_blk/U24
*255 uart_rx_inst/uart_rx_deserializer_blk/U25
*256 uart_rx_inst/uart_rx_deserializer_blk/U26
*257 uart_rx_inst/uart_rx_deserializer_blk/U27
*258 uart_rx_inst/uart_rx_deserializer_blk/U28
*259 uart_rx_inst/uart_rx_deserializer_blk/U29
*260 uart_rx_inst/uart_rx_deserializer_blk/U30
*261 uart_rx_inst/uart_rx_deserializer_blk/U31
*262 uart_rx_inst/uart_rx_deserializer_blk/U32
*263 uart_rx_inst/uart_rx_deserializer_blk/U33
*264 uart_rx_inst/uart_rx_deserializer_blk/U34
*265 uart_rx_inst/uart_rx_deserializer_blk/U35
*266 uart_rx_inst/uart_rx_deserializer_blk/U36
*267 uart_rx_inst/uart_rx_deserializer_blk/U37
*268 uart_rx_inst/uart_rx_deserializer_blk/U38
*269 uart_rx_inst/uart_rx_deserializer_blk/U39
*270 uart_rx_inst/uart_rx_deserializer_blk/U40
*271 uart_rx_inst/uart_rx_deserializer_blk/U41
*272 uart_rx_inst/uart_rx_deserializer_blk/U42
*273 uart_rx_inst/uart_rx_deserializer_blk/U43
*274 uart_rx_inst/uart_rx_deserializer_blk/U44
*275 uart_rx_inst/uart_rx_deserializer_blk/U45
*276 uart_rx_inst/uart_rx_deserializer_blk/U46
*277 uart_rx_inst/uart_rx_deserializer_blk/U47
*278 uart_tx_inst/uart_tx_serializer_mod/placeZBUF_inst_17
*279 uart_rx_inst/uart_rx_deserializer_blk/clockZBUF_inst_286
*280 uart_rx_inst/uart_rx_counters_blk/clockcopt_h_inst_300
*281 uart_rx_inst/uart_rx_deserializer_blk/U7
*282 uart_rx_inst/uart_rx_deserializer_blk/U8
*283 placeZBUF_inst_20
*284 uart_rx_inst/uart_rx_counters_blk/clockcopt_h_inst_301
*285 uart_rx_inst/uart_rx_counters_blk/clockcopt_h_inst_302
*286 uart_rx_inst/uart_rx_deserializer_blk/U12
*287 uart_rx_inst/uart_rx_deserializer_blk/U14
*288 uart_rx_inst/uart_rx_deserializer_blk/U15
*289 uart_rx_inst/uart_rx_deserializer_blk/U48
*290 uart_rx_inst/uart_rx_deserializer_blk/U49
*291 uart_rx_inst/uart_rx_deserializer_blk/U50
*292 uart_rx_inst/uart_rx_deserializer_blk/U51
*293 uart_rx_inst/uart_rx_stop_check_blk/clockZBUF_inst_287
*294 uart_rx_inst/uart_rx_counters_blk/clockcopt_h_inst_303
*295 uart_rx_inst/uart_rx_counters_blk/clockZBUF_inst_289
*296 uart_rx_inst/clockZBUF_inst_290
*297 uart_rx_inst/uart_rx_counters_blk/clockcopt_h_inst_304
*298 uart_rx_inst/uart_rx_counters_blk/clockcopt_h_inst_305
*299 uart_rx_inst/uart_rx_counters_blk/clockcopt_h_inst_306
*300 uart_rx_inst/uart_rx_deserializer_blk/clockcopt_h_inst_307
*301 uart_rx_inst/placeZBUF_inst_32
*302 uart_rx_inst/uart_rx_deserializer_blk/clockcopt_h_inst_308
*303 uart_rx_inst/uart_rx_deserializer_blk/clockcopt_h_inst_309
*304 uart_rx_inst/uart_rx_deserializer_blk/clockcopt_h_inst_310
*305 uart_rx_inst/uart_rx_deserializer_blk/clockZBUF_inst_296
*306 uart_rx_inst/uart_rx_deserializer_blk/clockcopt_h_inst_311
*307 uart_rx_inst/uart_rx_deserializer_blk/clockcopt_h_inst_312
*308 uart_rx_inst/uart_rx_deserializer_blk/clockcopt_h_inst_313
*309 uart_rx_inst/uart_rx_deserializer_blk/clockcopt_h_inst_314
*310 uart_rx_inst/uart_rx_data_sampling_blk/clockcopt_h_inst_315
*311 clockcopt_h_inst_316
*312 uart_rx_inst/uart_rx_data_sampling_blk/clockcopt_h_inst_317
*313 uart_rx_inst/uart_rx_data_sampling_blk/clockcopt_h_inst_318
*314 uart_rx_inst/uart_rx_start_check_blk/clockcopt_h_inst_319
*315 uart_rx_inst/uart_rx_counters_blk/clockcopt_h_inst_320
*316 uart_rx_inst/uart_rx_parity_check_blk/clockcopt_h_inst_321
*317 uart_rx_inst/uart_rx_controller_blk/clockcopt_h_inst_322
*318 uart_rx_inst/uart_rx_counters_blk/clockcopt_h_inst_324
*319 uart_rx_inst/uart_rx_counters_blk/clockcopt_h_inst_325
*320 uart_rx_inst/uart_rx_counters_blk/clockcopt_h_inst_327
*321 uart_rx_inst/uart_rx_counters_blk/clockcopt_h_inst_328
*322 uart_rx_inst/uart_rx_data_sampling_blk/clockcopt_h_inst_329
*323 uart_rx_inst/uart_rx_controller_blk/clockcopt_h_inst_330
*324 uart_rx_inst/uart_rx_counters_blk/clockcopt_h_inst_331
*325 uart_rx_inst/uart_rx_controller_blk/clockropt_h_inst_332
*326 uart_rx_inst/uart_rx_parity_check_blk/clockropt_h_inst_333
*327 uart_rx_inst/uart_rx_counters_blk/clockropt_h_inst_334
*328 uart_rx_inst/uart_rx_data_sampling_blk/clockropt_h_inst_335
*329 uart_rx_inst/uart_rx_counters_blk/clockropt_h_inst_336
*330 uart_rx_inst/uart_rx_controller_blk/clockropt_h_inst_337
*331 uart_rx_inst/uart_rx_counters_blk/clockropt_h_inst_338
*332 xofiller!SHFILL1_RVT!x135000y135000
*333 xofiller!SHFILL1_RVT!x136520y135000
*334 xofiller!SHFILL1_RVT!x138040y135000
*335 xofiller!SHFILL1_RVT!x139560y135000
*336 xofiller!SHFILL1_RVT!x141080y135000
*337 xofiller!SHFILL1_RVT!x142600y135000
*338 xofiller!SHFILL1_RVT!x144120y135000
*339 xofiller!SHFILL1_RVT!x145640y135000
*340 xofiller!SHFILL1_RVT!x147160y135000
*341 xofiller!SHFILL1_RVT!x148680y135000
*342 xofiller!SHFILL1_RVT!x150200y135000
*343 xofiller!SHFILL1_RVT!x151720y135000
*344 xofiller!SHFILL1_RVT!x153240y135000
*345 xofiller!SHFILL1_RVT!x154760y135000
*346 xofiller!SHFILL1_RVT!x156280y135000
*347 xofiller!SHFILL1_RVT!x157800y135000
*348 xofiller!SHFILL1_RVT!x159320y135000
*349 xofiller!SHFILL1_RVT!x160840y135000
*350 xofiller!SHFILL1_RVT!x162360y135000
*351 xofiller!SHFILL1_RVT!x163880y135000
*352 xofiller!SHFILL1_RVT!x165400y135000
*353 xofiller!SHFILL1_RVT!x166920y135000
*354 xofiller!SHFILL1_RVT!x168440y135000
*355 xofiller!SHFILL1_RVT!x169960y135000
*356 xofiller!SHFILL1_RVT!x171480y135000
*357 xofiller!SHFILL1_RVT!x173000y135000
*358 xofiller!SHFILL1_RVT!x174520y135000
*359 xofiller!SHFILL1_RVT!x176040y135000
*360 xofiller!SHFILL1_RVT!x177560y135000
*361 xofiller!SHFILL1_RVT!x179080y135000
*362 xofiller!SHFILL1_RVT!x180600y135000
*363 xofiller!SHFILL1_RVT!x182120y135000
*364 xofiller!SHFILL1_RVT!x183640y135000
*365 xofiller!SHFILL1_RVT!x185160y135000
*366 xofiller!SHFILL1_RVT!x186680y135000
*367 xofiller!SHFILL1_RVT!x188200y135000
*368 xofiller!SHFILL1_RVT!x189720y135000
*369 xofiller!SHFILL1_RVT!x191240y135000
*370 xofiller!SHFILL1_RVT!x192760y135000
*371 xofiller!SHFILL1_RVT!x194280y135000
*372 xofiller!SHFILL1_RVT!x195800y135000
*373 xofiller!SHFILL1_RVT!x197320y135000
*374 xofiller!SHFILL1_RVT!x198840y135000
*375 xofiller!SHFILL1_RVT!x200360y135000
*376 xofiller!SHFILL1_RVT!x201880y135000
*377 xofiller!SHFILL1_RVT!x203400y135000
*378 xofiller!SHFILL1_RVT!x204920y135000
*379 xofiller!SHFILL1_RVT!x206440y135000
*380 xofiller!SHFILL1_RVT!x207960y135000
*381 xofiller!SHFILL1_RVT!x209480y135000
*382 xofiller!SHFILL1_RVT!x211000y135000
*383 xofiller!SHFILL1_RVT!x212520y135000
*384 xofiller!SHFILL1_RVT!x214040y135000
*385 xofiller!SHFILL1_RVT!x215560y135000
*386 xofiller!SHFILL1_RVT!x217080y135000
*387 xofiller!SHFILL1_RVT!x218600y135000
*388 xofiller!SHFILL1_RVT!x220120y135000
*389 xofiller!SHFILL1_RVT!x221640y135000
*390 xofiller!SHFILL1_RVT!x223160y135000
*391 xofiller!SHFILL1_RVT!x224680y135000
*392 xofiller!SHFILL1_RVT!x226200y135000
*393 xofiller!SHFILL1_RVT!x227720y135000
*394 xofiller!SHFILL1_RVT!x229240y135000
*395 xofiller!SHFILL1_RVT!x230760y135000
*396 xofiller!SHFILL1_RVT!x232280y135000
*397 xofiller!SHFILL1_RVT!x233800y135000
*398 xofiller!SHFILL1_RVT!x235320y135000
*399 xofiller!SHFILL1_RVT!x236840y135000
*400 xofiller!SHFILL1_RVT!x238360y135000
*401 xofiller!SHFILL1_RVT!x239880y135000
*402 xofiller!SHFILL1_RVT!x241400y135000
*403 xofiller!SHFILL1_RVT!x242920y135000
*404 xofiller!SHFILL1_RVT!x244440y135000
*405 xofiller!SHFILL1_RVT!x245960y135000
*406 xofiller!SHFILL1_RVT!x247480y135000
*407 xofiller!SHFILL1_RVT!x249000y135000
*408 xofiller!SHFILL1_RVT!x250520y135000
*409 xofiller!SHFILL1_RVT!x252040y135000
*410 xofiller!SHFILL1_RVT!x253560y135000
*411 xofiller!SHFILL1_RVT!x255080y135000
*412 xofiller!SHFILL1_RVT!x256600y135000
*413 xofiller!SHFILL1_RVT!x258120y135000
*414 xofiller!SHFILL1_RVT!x259640y135000
*415 xofiller!SHFILL1_RVT!x261160y135000
*416 xofiller!SHFILL1_RVT!x262680y135000
*417 xofiller!SHFILL1_RVT!x264200y135000
*418 xofiller!SHFILL1_RVT!x265720y135000
*419 xofiller!SHFILL1_RVT!x267240y135000
*420 xofiller!SHFILL1_RVT!x268760y135000
*421 xofiller!SHFILL1_RVT!x270280y135000
*422 xofiller!SHFILL1_RVT!x271800y135000
*423 xofiller!SHFILL1_RVT!x273320y135000
*424 xofiller!SHFILL1_RVT!x274840y135000
*425 xofiller!SHFILL1_RVT!x276360y135000
*426 xofiller!SHFILL1_RVT!x277880y135000
*427 xofiller!SHFILL1_RVT!x279400y135000
*428 xofiller!SHFILL1_RVT!x280920y135000
*429 xofiller!SHFILL1_RVT!x282440y135000
*430 xofiller!SHFILL1_RVT!x283960y135000
*431 xofiller!SHFILL1_RVT!x285480y135000
*432 xofiller!SHFILL1_RVT!x287000y135000
*433 xofiller!SHFILL1_RVT!x288520y135000
*434 xofiller!SHFILL1_RVT!x290040y135000
*435 xofiller!SHFILL1_RVT!x291560y135000
*436 xofiller!SHFILL1_RVT!x293080y135000
*437 xofiller!SHFILL1_RVT!x294600y135000
*438 xofiller!SHFILL1_RVT!x296120y135000
*439 xofiller!SHFILL1_RVT!x297640y135000
*440 xofiller!SHFILL1_RVT!x299160y135000
*441 xofiller!SHFILL1_RVT!x300680y135000
*442 xofiller!SHFILL1_RVT!x302200y135000
*443 xofiller!SHFILL1_RVT!x303720y135000
*444 xofiller!SHFILL1_RVT!x305240y135000
*445 xofiller!SHFILL1_RVT!x306760y135000
*446 xofiller!SHFILL1_RVT!x308280y135000
*447 xofiller!SHFILL1_RVT!x309800y135000
*448 xofiller!SHFILL1_RVT!x311320y135000
*449 xofiller!SHFILL1_RVT!x312840y135000
*450 xofiller!SHFILL1_RVT!x314360y135000
*451 xofiller!SHFILL1_RVT!x315880y135000
*452 xofiller!SHFILL1_RVT!x317400y135000
*453 xofiller!SHFILL1_RVT!x318920y135000
*454 xofiller!SHFILL1_RVT!x320440y135000
*455 xofiller!SHFILL1_RVT!x321960y135000
*456 xofiller!SHFILL1_RVT!x323480y135000
*457 xofiller!SHFILL1_RVT!x325000y135000
*458 xofiller!SHFILL1_RVT!x326520y135000
*459 xofiller!SHFILL1_RVT!x328040y135000
*460 xofiller!SHFILL1_RVT!x329560y135000
*461 xofiller!SHFILL1_RVT!x331080y135000
*462 xofiller!SHFILL1_RVT!x332600y135000
*463 xofiller!SHFILL1_RVT!x334120y135000
*464 xofiller!SHFILL1_RVT!x335640y135000
*465 xofiller!SHFILL1_RVT!x337160y135000
*466 xofiller!SHFILL1_RVT!x338680y135000
*467 xofiller!SHFILL1_RVT!x340200y135000
*468 xofiller!SHFILL1_RVT!x341720y135000
*469 xofiller!SHFILL1_RVT!x343240y135000
*470 xofiller!SHFILL1_RVT!x344760y135000
*471 xofiller!SHFILL1_RVT!x346280y135000
*472 xofiller!SHFILL1_RVT!x347800y135000
*473 xofiller!SHFILL1_RVT!x349320y135000
*474 xofiller!SHFILL1_RVT!x350840y135000
*475 xofiller!SHFILL1_RVT!x352360y135000
*476 xofiller!SHFILL1_RVT!x353880y135000
*477 xofiller!SHFILL1_RVT!x355400y135000
*478 xofiller!SHFILL1_RVT!x356920y135000
*479 xofiller!SHFILL1_RVT!x358440y135000
*480 xofiller!SHFILL1_RVT!x359960y135000
*481 xofiller!SHFILL1_RVT!x361480y135000
*482 xofiller!SHFILL1_RVT!x363000y135000
*483 xofiller!SHFILL1_RVT!x364520y135000
*484 xofiller!SHFILL1_RVT!x366040y135000
*485 xofiller!SHFILL1_RVT!x367560y135000
*486 xofiller!SHFILL1_RVT!x369080y135000
*487 xofiller!SHFILL1_RVT!x370600y135000
*488 xofiller!SHFILL1_RVT!x372120y135000
*489 xofiller!SHFILL1_RVT!x373640y135000
*490 xofiller!SHFILL1_RVT!x375160y135000
*491 xofiller!SHFILL1_RVT!x376680y135000
*492 xofiller!SHFILL1_RVT!x378200y135000
*493 xofiller!SHFILL1_RVT!x379720y135000
*494 xofiller!SHFILL1_RVT!x381240y135000
*495 xofiller!SHFILL1_RVT!x382760y135000
*496 xofiller!SHFILL1_RVT!x384280y135000
*497 xofiller!SHFILL1_RVT!x385800y135000
*498 xofiller!SHFILL1_RVT!x387320y135000
*499 xofiller!SHFILL1_RVT!x388840y135000
*500 xofiller!SHFILL1_RVT!x390360y135000
*501 xofiller!SHFILL1_RVT!x391880y135000
*502 xofiller!SHFILL1_RVT!x393400y135000
*503 xofiller!SHFILL1_RVT!x394920y135000
*504 xofiller!SHFILL1_RVT!x396440y135000
*505 xofiller!SHFILL1_RVT!x397960y135000
*506 xofiller!SHFILL1_RVT!x399480y135000
*507 xofiller!SHFILL1_RVT!x401000y135000
*508 xofiller!SHFILL1_RVT!x402520y135000
*509 xofiller!SHFILL1_RVT!x404040y135000
*510 xofiller!SHFILL1_RVT!x405560y135000
*511 xofiller!SHFILL1_RVT!x407080y135000
*512 xofiller!SHFILL1_RVT!x408600y135000
*513 xofiller!SHFILL1_RVT!x410120y135000
*514 xofiller!SHFILL1_RVT!x411640y135000
*515 xofiller!SHFILL1_RVT!x413160y135000
*516 xofiller!SHFILL1_RVT!x414680y135000
*517 xofiller!SHFILL1_RVT!x416200y135000
*518 xofiller!SHFILL1_RVT!x417720y135000
*519 xofiller!SHFILL1_RVT!x419240y135000
*520 xofiller!SHFILL1_RVT!x420760y135000
*521 xofiller!SHFILL1_RVT!x422280y135000
*522 xofiller!SHFILL1_RVT!x423800y135000
*523 xofiller!SHFILL1_RVT!x425320y135000
*524 xofiller!SHFILL1_RVT!x426840y135000
*525 xofiller!SHFILL1_RVT!x428360y135000
*526 xofiller!SHFILL1_RVT!x429880y135000
*527 xofiller!SHFILL1_RVT!x431400y135000
*528 xofiller!SHFILL1_RVT!x432920y135000
*529 xofiller!SHFILL1_RVT!x434440y135000
*530 xofiller!SHFILL1_RVT!x435960y135000
*531 xofiller!SHFILL1_RVT!x437480y135000
*532 xofiller!SHFILL1_RVT!x439000y135000
*533 xofiller!SHFILL1_RVT!x440520y135000
*534 xofiller!SHFILL1_RVT!x442040y135000
*535 xofiller!SHFILL1_RVT!x443560y135000
*536 xofiller!SHFILL1_RVT!x445080y135000
*537 xofiller!SHFILL1_RVT!x446600y135000
*538 xofiller!SHFILL1_RVT!x448120y135000
*539 xofiller!SHFILL1_RVT!x449640y135000
*540 xofiller!SHFILL1_RVT!x451160y135000
*541 xofiller!SHFILL1_RVT!x452680y135000
*542 xofiller!SHFILL1_RVT!x454200y135000
*543 xofiller!SHFILL1_RVT!x455720y135000
*544 xofiller!SHFILL1_RVT!x457240y135000
*545 xofiller!SHFILL1_RVT!x458760y135000
*546 xofiller!SHFILL1_RVT!x460280y135000
*547 xofiller!SHFILL1_RVT!x461800y135000
*548 xofiller!SHFILL1_RVT!x463320y135000
*549 xofiller!SHFILL1_RVT!x464840y135000
*550 xofiller!SHFILL1_RVT!x466360y135000
*551 xofiller!SHFILL1_RVT!x467880y135000
*552 xofiller!SHFILL1_RVT!x469400y135000
*553 xofiller!SHFILL1_RVT!x470920y135000
*554 xofiller!SHFILL1_RVT!x472440y135000
*555 xofiller!SHFILL1_RVT!x473960y135000
*556 xofiller!SHFILL1_RVT!x475480y135000
*557 xofiller!SHFILL1_RVT!x477000y135000
*558 xofiller!SHFILL1_RVT!x478520y135000
*559 xofiller!SHFILL1_RVT!x480040y135000
*560 xofiller!SHFILL1_RVT!x481560y135000
*561 xofiller!SHFILL1_RVT!x483080y135000
*562 xofiller!SHFILL1_RVT!x484600y135000
*563 xofiller!SHFILL1_RVT!x486120y135000
*564 xofiller!SHFILL1_RVT!x487640y135000
*565 xofiller!SHFILL1_RVT!x489160y135000
*566 xofiller!SHFILL1_RVT!x490680y135000
*567 xofiller!SHFILL1_RVT!x492200y135000
*568 xofiller!SHFILL1_RVT!x493720y135000
*569 xofiller!SHFILL1_RVT!x495240y135000
*570 xofiller!SHFILL1_RVT!x496760y135000
*571 xofiller!SHFILL1_RVT!x498280y135000
*572 xofiller!SHFILL1_RVT!x499800y135000
*573 xofiller!SHFILL1_RVT!x501320y135000
*574 xofiller!SHFILL1_RVT!x502840y135000
*575 xofiller!SHFILL1_RVT!x504360y135000
*576 xofiller!SHFILL1_RVT!x505880y135000
*577 xofiller!SHFILL1_RVT!x507400y135000
*578 xofiller!SHFILL1_RVT!x508920y135000
*579 xofiller!SHFILL1_RVT!x510440y135000
*580 xofiller!SHFILL1_RVT!x511960y135000
*581 xofiller!SHFILL1_RVT!x513480y135000
*582 xofiller!SHFILL1_RVT!x515000y135000
*583 xofiller!SHFILL1_RVT!x516520y135000
*584 xofiller!SHFILL1_RVT!x518040y135000
*585 xofiller!SHFILL1_RVT!x519560y135000
*586 xofiller!SHFILL1_RVT!x521080y135000
*587 xofiller!SHFILL1_RVT!x522600y135000
*588 xofiller!SHFILL1_RVT!x524120y135000
*589 xofiller!SHFILL1_RVT!x525640y135000
*590 xofiller!SHFILL1_RVT!x527160y135000
*591 xofiller!SHFILL1_RVT!x528680y135000
*592 xofiller!SHFILL1_RVT!x530200y135000
*593 xofiller!SHFILL1_RVT!x531720y135000
*594 xofiller!SHFILL1_RVT!x533240y135000
*595 xofiller!SHFILL1_RVT!x534760y135000
*596 xofiller!SHFILL1_RVT!x536280y135000
*597 xofiller!SHFILL1_RVT!x537800y135000
*598 xofiller!SHFILL1_RVT!x539320y135000
*599 xofiller!SHFILL1_RVT!x540840y135000
*600 xofiller!SHFILL1_RVT!x542360y135000
*601 xofiller!SHFILL1_RVT!x543880y135000
*602 xofiller!SHFILL1_RVT!x545400y135000
*603 xofiller!SHFILL1_RVT!x546920y135000
*604 xofiller!SHFILL1_RVT!x548440y135000
*605 xofiller!SHFILL1_RVT!x549960y135000
*606 xofiller!SHFILL1_RVT!x551480y135000
*607 xofiller!SHFILL1_RVT!x553000y135000
*608 xofiller!SHFILL1_RVT!x554520y135000
*609 xofiller!SHFILL1_RVT!x556040y135000
*610 xofiller!SHFILL1_RVT!x557560y135000
*611 xofiller!SHFILL1_RVT!x559080y135000
*612 xofiller!SHFILL1_RVT!x560600y135000
*613 xofiller!SHFILL1_RVT!x562120y135000
*614 xofiller!SHFILL1_RVT!x563640y135000
*615 xofiller!SHFILL1_RVT!x565160y135000
*616 xofiller!SHFILL1_RVT!x566680y135000
*617 xofiller!SHFILL1_RVT!x568200y135000
*618 xofiller!SHFILL1_RVT!x569720y135000
*619 xofiller!SHFILL1_RVT!x571240y135000
*620 xofiller!SHFILL1_RVT!x572760y135000
*621 xofiller!SHFILL1_RVT!x574280y135000
*622 xofiller!SHFILL1_RVT!x575800y135000
*623 xofiller!SHFILL1_RVT!x577320y135000
*624 xofiller!SHFILL1_RVT!x578840y135000
*625 xofiller!SHFILL1_RVT!x580360y135000
*626 xofiller!SHFILL1_RVT!x581880y135000
*627 xofiller!SHFILL1_RVT!x583400y135000
*628 xofiller!SHFILL1_RVT!x584920y135000
*629 xofiller!SHFILL1_RVT!x586440y135000
*630 xofiller!SHFILL1_RVT!x587960y135000
*631 xofiller!SHFILL1_RVT!x589480y135000
*632 xofiller!SHFILL1_RVT!x591000y135000
*633 xofiller!SHFILL1_RVT!x592520y135000
*634 xofiller!SHFILL1_RVT!x594040y135000
*635 xofiller!SHFILL1_RVT!x595560y135000
*636 xofiller!SHFILL1_RVT!x597080y135000
*637 xofiller!SHFILL1_RVT!x598600y135000
*638 xofiller!SHFILL1_RVT!x600120y135000
*639 xofiller!SHFILL1_RVT!x601640y135000
*640 xofiller!SHFILL1_RVT!x603160y135000
*641 xofiller!SHFILL1_RVT!x604680y135000
*642 xofiller!SHFILL1_RVT!x606200y135000
*643 xofiller!SHFILL1_RVT!x607720y135000
*644 xofiller!SHFILL1_RVT!x609240y135000
*645 xofiller!SHFILL1_RVT!x610760y135000
*646 xofiller!SHFILL1_RVT!x612280y135000
*647 xofiller!SHFILL1_RVT!x613800y135000
*648 xofiller!SHFILL1_RVT!x615320y135000
*649 xofiller!SHFILL1_RVT!x616840y135000
*650 xofiller!SHFILL1_RVT!x618360y135000
*651 xofiller!SHFILL1_RVT!x619880y135000
*652 xofiller!SHFILL1_RVT!x621400y135000
*653 xofiller!SHFILL1_RVT!x622920y135000
*654 xofiller!SHFILL1_RVT!x624440y135000
*655 xofiller!SHFILL1_RVT!x625960y135000
*656 xofiller!SHFILL1_RVT!x627480y135000
*657 xofiller!SHFILL1_RVT!x629000y135000
*658 xofiller!SHFILL1_RVT!x630520y135000
*659 xofiller!SHFILL1_RVT!x632040y135000
*660 xofiller!SHFILL1_RVT!x633560y135000
*661 xofiller!SHFILL1_RVT!x635080y135000
*662 xofiller!SHFILL1_RVT!x636600y135000
*663 xofiller!SHFILL1_RVT!x638120y135000
*664 xofiller!SHFILL1_RVT!x639640y135000
*665 xofiller!SHFILL1_RVT!x641160y135000
*666 xofiller!SHFILL1_RVT!x642680y135000
*667 xofiller!SHFILL1_RVT!x644200y135000
*668 xofiller!SHFILL1_RVT!x645720y135000
*669 xofiller!SHFILL1_RVT!x647240y135000
*670 xofiller!SHFILL1_RVT!x648760y135000
*671 xofiller!SHFILL1_RVT!x650280y135000
*672 xofiller!SHFILL1_RVT!x651800y135000
*673 xofiller!SHFILL1_RVT!x653320y135000
*674 xofiller!SHFILL1_RVT!x654840y135000
*675 xofiller!SHFILL1_RVT!x656360y135000
*676 xofiller!SHFILL1_RVT!x657880y135000
*677 xofiller!SHFILL1_RVT!x659400y135000
*678 xofiller!SHFILL1_RVT!x660920y135000
*679 xofiller!SHFILL1_RVT!x662440y135000
*680 xofiller!SHFILL1_RVT!x663960y135000
*681 xofiller!SHFILL1_RVT!x665480y135000
*682 xofiller!SHFILL1_RVT!x667000y135000
*683 xofiller!SHFILL1_RVT!x668520y135000
*684 xofiller!SHFILL1_RVT!x670040y135000
*685 xofiller!SHFILL1_RVT!x686760y135000
*686 xofiller!SHFILL1_RVT!x688280y135000
*687 xofiller!SHFILL1_RVT!x689800y135000
*688 xofiller!SHFILL1_RVT!x691320y135000
*689 xofiller!SHFILL1_RVT!x692840y135000
*690 xofiller!SHFILL1_RVT!x694360y135000
*691 xofiller!SHFILL1_RVT!x695880y135000
*692 xofiller!SHFILL1_RVT!x697400y135000
*693 xofiller!SHFILL1_RVT!x698920y135000
*694 xofiller!SHFILL1_RVT!x700440y135000
*695 xofiller!SHFILL1_RVT!x701960y135000
*696 xofiller!SHFILL1_RVT!x703480y135000
*697 xofiller!SHFILL1_RVT!x705000y135000
*698 xofiller!SHFILL1_RVT!x706520y135000
*699 xofiller!SHFILL1_RVT!x708040y135000
*700 xofiller!SHFILL1_RVT!x709560y135000
*701 xofiller!SHFILL1_RVT!x711080y135000
*702 xofiller!SHFILL1_RVT!x712600y135000
*703 xofiller!SHFILL1_RVT!x714120y135000
*704 xofiller!SHFILL1_RVT!x715640y135000
*705 xofiller!SHFILL1_RVT!x717160y135000
*706 xofiller!SHFILL1_RVT!x718680y135000
*707 xofiller!SHFILL1_RVT!x720200y135000
*708 xofiller!SHFILL1_RVT!x721720y135000
*709 xofiller!SHFILL1_RVT!x723240y135000
*710 xofiller!SHFILL1_RVT!x724760y135000
*711 xofiller!SHFILL1_RVT!x726280y135000
*712 xofiller!SHFILL1_RVT!x727800y135000
*713 xofiller!SHFILL1_RVT!x729320y135000
*714 xofiller!SHFILL1_RVT!x730840y135000
*715 xofiller!SHFILL1_RVT!x732360y135000
*716 xofiller!SHFILL1_RVT!x733880y135000
*717 xofiller!SHFILL1_RVT!x735400y135000
*718 xofiller!SHFILL1_RVT!x736920y135000
*719 xofiller!SHFILL1_RVT!x738440y135000
*720 xofiller!SHFILL1_RVT!x739960y135000
*721 xofiller!SHFILL1_RVT!x741480y135000
*722 xofiller!SHFILL1_RVT!x743000y135000
*723 xofiller!SHFILL1_RVT!x744520y135000
*724 xofiller!SHFILL1_RVT!x135000y151720
*725 xofiller!SHFILL1_RVT!x136520y151720
*726 xofiller!SHFILL1_RVT!x138040y151720
*727 xofiller!SHFILL1_RVT!x139560y151720
*728 xofiller!SHFILL1_RVT!x141080y151720
*729 xofiller!SHFILL1_RVT!x142600y151720
*730 xofiller!SHFILL1_RVT!x144120y151720
*731 xofiller!SHFILL1_RVT!x145640y151720
*732 xofiller!SHFILL1_RVT!x147160y151720
*733 xofiller!SHFILL1_RVT!x148680y151720
*734 xofiller!SHFILL1_RVT!x150200y151720
*735 xofiller!SHFILL1_RVT!x151720y151720
*736 xofiller!SHFILL1_RVT!x153240y151720
*737 xofiller!SHFILL1_RVT!x154760y151720
*738 xofiller!SHFILL1_RVT!x156280y151720
*739 xofiller!SHFILL1_RVT!x157800y151720
*740 xofiller!SHFILL1_RVT!x159320y151720
*741 xofiller!SHFILL1_RVT!x160840y151720
*742 xofiller!SHFILL1_RVT!x162360y151720
*743 xofiller!SHFILL1_RVT!x163880y151720
*744 xofiller!SHFILL1_RVT!x165400y151720
*745 xofiller!SHFILL1_RVT!x166920y151720
*746 xofiller!SHFILL1_RVT!x168440y151720
*747 xofiller!SHFILL1_RVT!x169960y151720
*748 xofiller!SHFILL1_RVT!x171480y151720
*749 xofiller!SHFILL1_RVT!x173000y151720
*750 xofiller!SHFILL1_RVT!x174520y151720
*751 xofiller!SHFILL1_RVT!x176040y151720
*752 xofiller!SHFILL1_RVT!x177560y151720
*753 xofiller!SHFILL1_RVT!x179080y151720
*754 xofiller!SHFILL1_RVT!x180600y151720
*755 xofiller!SHFILL1_RVT!x182120y151720
*756 xofiller!SHFILL1_RVT!x183640y151720
*757 xofiller!SHFILL1_RVT!x185160y151720
*758 xofiller!SHFILL1_RVT!x186680y151720
*759 xofiller!SHFILL1_RVT!x188200y151720
*760 xofiller!SHFILL1_RVT!x189720y151720
*761 xofiller!SHFILL1_RVT!x191240y151720
*762 xofiller!SHFILL1_RVT!x192760y151720
*763 xofiller!SHFILL1_RVT!x194280y151720
*764 xofiller!SHFILL1_RVT!x195800y151720
*765 xofiller!SHFILL1_RVT!x197320y151720
*766 xofiller!SHFILL1_RVT!x198840y151720
*767 xofiller!SHFILL1_RVT!x200360y151720
*768 xofiller!SHFILL1_RVT!x201880y151720
*769 xofiller!SHFILL1_RVT!x203400y151720
*770 xofiller!SHFILL1_RVT!x204920y151720
*771 xofiller!SHFILL1_RVT!x206440y151720
*772 xofiller!SHFILL1_RVT!x207960y151720
*773 xofiller!SHFILL1_RVT!x209480y151720
*774 xofiller!SHFILL1_RVT!x211000y151720
*775 xofiller!SHFILL1_RVT!x212520y151720
*776 xofiller!SHFILL1_RVT!x214040y151720
*777 xofiller!SHFILL1_RVT!x215560y151720
*778 xofiller!SHFILL1_RVT!x217080y151720
*779 xofiller!SHFILL1_RVT!x218600y151720
*780 xofiller!SHFILL1_RVT!x220120y151720
*781 xofiller!SHFILL1_RVT!x221640y151720
*782 xofiller!SHFILL1_RVT!x223160y151720
*783 xofiller!SHFILL1_RVT!x224680y151720
*784 xofiller!SHFILL1_RVT!x226200y151720
*785 xofiller!SHFILL1_RVT!x227720y151720
*786 xofiller!SHFILL1_RVT!x229240y151720
*787 xofiller!SHFILL1_RVT!x230760y151720
*788 xofiller!SHFILL1_RVT!x232280y151720
*789 xofiller!SHFILL1_RVT!x233800y151720
*790 xofiller!SHFILL1_RVT!x235320y151720
*791 xofiller!SHFILL1_RVT!x236840y151720
*792 xofiller!SHFILL1_RVT!x238360y151720
*793 xofiller!SHFILL1_RVT!x239880y151720
*794 xofiller!SHFILL1_RVT!x241400y151720
*795 xofiller!SHFILL1_RVT!x242920y151720
*796 xofiller!SHFILL1_RVT!x244440y151720
*797 xofiller!SHFILL1_RVT!x245960y151720
*798 xofiller!SHFILL1_RVT!x247480y151720
*799 xofiller!SHFILL1_RVT!x249000y151720
*800 xofiller!SHFILL1_RVT!x250520y151720
*801 xofiller!SHFILL1_RVT!x252040y151720
*802 xofiller!SHFILL1_RVT!x253560y151720
*803 xofiller!SHFILL1_RVT!x255080y151720
*804 xofiller!SHFILL1_RVT!x256600y151720
*805 xofiller!SHFILL1_RVT!x258120y151720
*806 xofiller!SHFILL1_RVT!x259640y151720
*807 xofiller!SHFILL1_RVT!x261160y151720
*808 xofiller!SHFILL1_RVT!x262680y151720
*809 xofiller!SHFILL1_RVT!x264200y151720
*810 xofiller!SHFILL1_RVT!x265720y151720
*811 xofiller!SHFILL1_RVT!x267240y151720
*812 xofiller!SHFILL1_RVT!x268760y151720
*813 xofiller!SHFILL1_RVT!x270280y151720
*814 xofiller!SHFILL1_RVT!x271800y151720
*815 xofiller!SHFILL1_RVT!x273320y151720
*816 xofiller!SHFILL1_RVT!x274840y151720
*817 xofiller!SHFILL1_RVT!x276360y151720
*818 xofiller!SHFILL1_RVT!x277880y151720
*819 xofiller!SHFILL1_RVT!x279400y151720
*820 xofiller!SHFILL1_RVT!x280920y151720
*821 xofiller!SHFILL1_RVT!x282440y151720
*822 xofiller!SHFILL1_RVT!x283960y151720
*823 xofiller!SHFILL1_RVT!x285480y151720
*824 xofiller!SHFILL1_RVT!x287000y151720
*825 xofiller!SHFILL1_RVT!x288520y151720
*826 xofiller!SHFILL1_RVT!x290040y151720
*827 xofiller!SHFILL1_RVT!x291560y151720
*828 xofiller!SHFILL1_RVT!x293080y151720
*829 xofiller!SHFILL1_RVT!x294600y151720
*830 xofiller!SHFILL1_RVT!x296120y151720
*831 xofiller!SHFILL1_RVT!x297640y151720
*832 xofiller!SHFILL1_RVT!x299160y151720
*833 xofiller!SHFILL1_RVT!x300680y151720
*834 xofiller!SHFILL1_RVT!x302200y151720
*835 xofiller!SHFILL1_RVT!x303720y151720
*836 xofiller!SHFILL1_RVT!x305240y151720
*837 xofiller!SHFILL1_RVT!x306760y151720
*838 xofiller!SHFILL1_RVT!x308280y151720
*839 xofiller!SHFILL1_RVT!x309800y151720
*840 xofiller!SHFILL1_RVT!x311320y151720
*841 xofiller!SHFILL1_RVT!x312840y151720
*842 xofiller!SHFILL1_RVT!x314360y151720
*843 xofiller!SHFILL1_RVT!x315880y151720
*844 xofiller!SHFILL1_RVT!x317400y151720
*845 xofiller!SHFILL1_RVT!x318920y151720
*846 xofiller!SHFILL1_RVT!x320440y151720
*847 xofiller!SHFILL1_RVT!x321960y151720
*848 xofiller!SHFILL1_RVT!x323480y151720
*849 xofiller!SHFILL1_RVT!x325000y151720
*850 xofiller!SHFILL1_RVT!x326520y151720
*851 xofiller!SHFILL1_RVT!x328040y151720
*852 xofiller!SHFILL1_RVT!x329560y151720
*853 xofiller!SHFILL1_RVT!x331080y151720
*854 xofiller!SHFILL1_RVT!x332600y151720
*855 xofiller!SHFILL1_RVT!x334120y151720
*856 xofiller!SHFILL1_RVT!x335640y151720
*857 xofiller!SHFILL1_RVT!x337160y151720
*858 xofiller!SHFILL1_RVT!x338680y151720
*859 xofiller!SHFILL1_RVT!x340200y151720
*860 xofiller!SHFILL1_RVT!x341720y151720
*861 xofiller!SHFILL1_RVT!x343240y151720
*862 xofiller!SHFILL1_RVT!x344760y151720
*863 xofiller!SHFILL1_RVT!x346280y151720
*864 xofiller!SHFILL1_RVT!x347800y151720
*865 xofiller!SHFILL1_RVT!x349320y151720
*866 xofiller!SHFILL1_RVT!x350840y151720
*867 xofiller!SHFILL1_RVT!x352360y151720
*868 xofiller!SHFILL1_RVT!x353880y151720
*869 xofiller!SHFILL1_RVT!x355400y151720
*870 xofiller!SHFILL1_RVT!x356920y151720
*871 xofiller!SHFILL1_RVT!x358440y151720
*872 xofiller!SHFILL1_RVT!x359960y151720
*873 xofiller!SHFILL1_RVT!x361480y151720
*874 xofiller!SHFILL1_RVT!x363000y151720
*875 xofiller!SHFILL1_RVT!x364520y151720
*876 xofiller!SHFILL1_RVT!x366040y151720
*877 xofiller!SHFILL1_RVT!x367560y151720
*878 xofiller!SHFILL1_RVT!x369080y151720
*879 xofiller!SHFILL1_RVT!x370600y151720
*880 xofiller!SHFILL1_RVT!x372120y151720
*881 xofiller!SHFILL1_RVT!x373640y151720
*882 xofiller!SHFILL1_RVT!x375160y151720
*883 xofiller!SHFILL1_RVT!x376680y151720
*884 xofiller!SHFILL1_RVT!x378200y151720
*885 xofiller!SHFILL1_RVT!x379720y151720
*886 xofiller!SHFILL1_RVT!x381240y151720
*887 xofiller!SHFILL1_RVT!x382760y151720
*888 xofiller!SHFILL1_RVT!x384280y151720
*889 xofiller!SHFILL1_RVT!x385800y151720
*890 xofiller!SHFILL1_RVT!x387320y151720
*891 xofiller!SHFILL1_RVT!x388840y151720
*892 xofiller!SHFILL1_RVT!x390360y151720
*893 xofiller!SHFILL1_RVT!x391880y151720
*894 xofiller!SHFILL1_RVT!x393400y151720
*895 xofiller!SHFILL1_RVT!x394920y151720
*896 xofiller!SHFILL1_RVT!x396440y151720
*897 xofiller!SHFILL1_RVT!x397960y151720
*898 xofiller!SHFILL1_RVT!x399480y151720
*899 xofiller!SHFILL1_RVT!x401000y151720
*900 xofiller!SHFILL1_RVT!x402520y151720
*901 xofiller!SHFILL1_RVT!x404040y151720
*902 xofiller!SHFILL1_RVT!x405560y151720
*903 xofiller!SHFILL1_RVT!x407080y151720
*904 xofiller!SHFILL1_RVT!x408600y151720
*905 xofiller!SHFILL1_RVT!x410120y151720
*906 xofiller!SHFILL1_RVT!x411640y151720
*907 xofiller!SHFILL1_RVT!x413160y151720
*908 xofiller!SHFILL1_RVT!x414680y151720
*909 xofiller!SHFILL1_RVT!x416200y151720
*910 xofiller!SHFILL1_RVT!x417720y151720
*911 xofiller!SHFILL1_RVT!x419240y151720
*912 xofiller!SHFILL1_RVT!x420760y151720
*913 xofiller!SHFILL1_RVT!x422280y151720
*914 xofiller!SHFILL1_RVT!x423800y151720
*915 xofiller!SHFILL1_RVT!x425320y151720
*916 xofiller!SHFILL1_RVT!x426840y151720
*917 xofiller!SHFILL1_RVT!x428360y151720
*918 xofiller!SHFILL1_RVT!x429880y151720
*919 xofiller!SHFILL1_RVT!x431400y151720
*920 xofiller!SHFILL1_RVT!x432920y151720
*921 xofiller!SHFILL1_RVT!x434440y151720
*922 xofiller!SHFILL1_RVT!x435960y151720
*923 xofiller!SHFILL1_RVT!x437480y151720
*924 xofiller!SHFILL1_RVT!x439000y151720
*925 xofiller!SHFILL1_RVT!x440520y151720
*926 xofiller!SHFILL1_RVT!x442040y151720
*927 xofiller!SHFILL1_RVT!x443560y151720
*928 xofiller!SHFILL1_RVT!x445080y151720
*929 xofiller!SHFILL1_RVT!x446600y151720
*930 xofiller!SHFILL1_RVT!x448120y151720
*931 xofiller!SHFILL1_RVT!x449640y151720
*932 xofiller!SHFILL1_RVT!x451160y151720
*933 xofiller!SHFILL1_RVT!x452680y151720
*934 xofiller!SHFILL1_RVT!x454200y151720
*935 xofiller!SHFILL1_RVT!x455720y151720
*936 xofiller!SHFILL1_RVT!x457240y151720
*937 xofiller!SHFILL1_RVT!x458760y151720
*938 xofiller!SHFILL1_RVT!x460280y151720
*939 xofiller!SHFILL1_RVT!x461800y151720
*940 xofiller!SHFILL1_RVT!x463320y151720
*941 xofiller!SHFILL1_RVT!x464840y151720
*942 xofiller!SHFILL1_RVT!x466360y151720
*943 xofiller!SHFILL1_RVT!x467880y151720
*944 xofiller!SHFILL1_RVT!x469400y151720
*945 xofiller!SHFILL1_RVT!x470920y151720
*946 xofiller!SHFILL1_RVT!x472440y151720
*947 xofiller!SHFILL1_RVT!x473960y151720
*948 xofiller!SHFILL1_RVT!x475480y151720
*949 xofiller!SHFILL1_RVT!x477000y151720
*950 xofiller!SHFILL1_RVT!x478520y151720
*951 xofiller!SHFILL1_RVT!x480040y151720
*952 xofiller!SHFILL1_RVT!x481560y151720
*953 xofiller!SHFILL1_RVT!x483080y151720
*954 xofiller!SHFILL1_RVT!x484600y151720
*955 xofiller!SHFILL1_RVT!x486120y151720
*956 xofiller!SHFILL1_RVT!x487640y151720
*957 xofiller!SHFILL1_RVT!x489160y151720
*958 xofiller!SHFILL1_RVT!x490680y151720
*959 xofiller!SHFILL1_RVT!x492200y151720
*960 xofiller!SHFILL1_RVT!x493720y151720
*961 xofiller!SHFILL1_RVT!x495240y151720
*962 xofiller!SHFILL1_RVT!x496760y151720
*963 xofiller!SHFILL1_RVT!x498280y151720
*964 xofiller!SHFILL1_RVT!x499800y151720
*965 xofiller!SHFILL1_RVT!x501320y151720
*966 xofiller!SHFILL1_RVT!x502840y151720
*967 xofiller!SHFILL1_RVT!x504360y151720
*968 xofiller!SHFILL1_RVT!x505880y151720
*969 xofiller!SHFILL1_RVT!x507400y151720
*970 xofiller!SHFILL1_RVT!x508920y151720
*971 xofiller!SHFILL1_RVT!x510440y151720
*972 xofiller!SHFILL1_RVT!x511960y151720
*973 xofiller!SHFILL1_RVT!x513480y151720
*974 xofiller!SHFILL1_RVT!x515000y151720
*975 xofiller!SHFILL1_RVT!x516520y151720
*976 xofiller!SHFILL1_RVT!x518040y151720
*977 xofiller!SHFILL1_RVT!x519560y151720
*978 xofiller!SHFILL1_RVT!x521080y151720
*979 xofiller!SHFILL1_RVT!x522600y151720
*980 xofiller!SHFILL1_RVT!x524120y151720
*981 xofiller!SHFILL1_RVT!x525640y151720
*982 xofiller!SHFILL1_RVT!x527160y151720
*983 xofiller!SHFILL1_RVT!x528680y151720
*984 xofiller!SHFILL1_RVT!x530200y151720
*985 xofiller!SHFILL1_RVT!x531720y151720
*986 xofiller!SHFILL1_RVT!x533240y151720
*987 xofiller!SHFILL1_RVT!x534760y151720
*988 xofiller!SHFILL1_RVT!x536280y151720
*989 xofiller!SHFILL1_RVT!x537800y151720
*990 xofiller!SHFILL1_RVT!x539320y151720
*991 xofiller!SHFILL1_RVT!x540840y151720
*992 xofiller!SHFILL1_RVT!x542360y151720
*993 xofiller!SHFILL1_RVT!x543880y151720
*994 xofiller!SHFILL1_RVT!x545400y151720
*995 xofiller!SHFILL1_RVT!x546920y151720
*996 xofiller!SHFILL1_RVT!x548440y151720
*997 xofiller!SHFILL1_RVT!x549960y151720
*998 xofiller!SHFILL1_RVT!x551480y151720
*999 xofiller!SHFILL1_RVT!x553000y151720
*1000 xofiller!SHFILL1_RVT!x554520y151720
*1001 xofiller!SHFILL1_RVT!x556040y151720
*1002 xofiller!SHFILL1_RVT!x557560y151720
*1003 xofiller!SHFILL1_RVT!x559080y151720
*1004 xofiller!SHFILL1_RVT!x560600y151720
*1005 xofiller!SHFILL1_RVT!x562120y151720
*1006 xofiller!SHFILL1_RVT!x563640y151720
*1007 xofiller!SHFILL1_RVT!x565160y151720
*1008 xofiller!SHFILL1_RVT!x566680y151720
*1009 xofiller!SHFILL1_RVT!x568200y151720
*1010 xofiller!SHFILL1_RVT!x569720y151720
*1011 xofiller!SHFILL1_RVT!x571240y151720
*1012 xofiller!SHFILL1_RVT!x572760y151720
*1013 xofiller!SHFILL1_RVT!x574280y151720
*1014 xofiller!SHFILL1_RVT!x575800y151720
*1015 xofiller!SHFILL1_RVT!x577320y151720
*1016 xofiller!SHFILL1_RVT!x578840y151720
*1017 xofiller!SHFILL1_RVT!x580360y151720
*1018 xofiller!SHFILL1_RVT!x581880y151720
*1019 xofiller!SHFILL1_RVT!x583400y151720
*1020 xofiller!SHFILL1_RVT!x584920y151720
*1021 xofiller!SHFILL1_RVT!x586440y151720
*1022 xofiller!SHFILL1_RVT!x587960y151720
*1023 xofiller!SHFILL1_RVT!x589480y151720
*1024 xofiller!SHFILL1_RVT!x591000y151720
*1025 xofiller!SHFILL1_RVT!x592520y151720
*1026 xofiller!SHFILL1_RVT!x594040y151720
*1027 xofiller!SHFILL1_RVT!x595560y151720
*1028 xofiller!SHFILL1_RVT!x597080y151720
*1029 xofiller!SHFILL1_RVT!x598600y151720
*1030 xofiller!SHFILL1_RVT!x600120y151720
*1031 xofiller!SHFILL1_RVT!x601640y151720
*1032 xofiller!SHFILL1_RVT!x603160y151720
*1033 xofiller!SHFILL1_RVT!x604680y151720
*1034 xofiller!SHFILL1_RVT!x606200y151720
*1035 xofiller!SHFILL1_RVT!x607720y151720
*1036 xofiller!SHFILL1_RVT!x609240y151720
*1037 xofiller!SHFILL1_RVT!x610760y151720
*1038 xofiller!SHFILL1_RVT!x612280y151720
*1039 xofiller!SHFILL1_RVT!x613800y151720
*1040 xofiller!SHFILL1_RVT!x615320y151720
*1041 xofiller!SHFILL1_RVT!x616840y151720
*1042 xofiller!SHFILL1_RVT!x618360y151720
*1043 xofiller!SHFILL1_RVT!x619880y151720
*1044 xofiller!SHFILL1_RVT!x621400y151720
*1045 xofiller!SHFILL1_RVT!x622920y151720
*1046 xofiller!SHFILL1_RVT!x624440y151720
*1047 xofiller!SHFILL1_RVT!x625960y151720
*1048 xofiller!SHFILL1_RVT!x627480y151720
*1049 xofiller!SHFILL1_RVT!x629000y151720
*1050 xofiller!SHFILL1_RVT!x630520y151720
*1051 xofiller!SHFILL1_RVT!x632040y151720
*1052 xofiller!SHFILL1_RVT!x633560y151720
*1053 xofiller!SHFILL1_RVT!x635080y151720
*1054 xofiller!SHFILL1_RVT!x636600y151720
*1055 xofiller!SHFILL1_RVT!x638120y151720
*1056 xofiller!SHFILL1_RVT!x639640y151720
*1057 xofiller!SHFILL1_RVT!x641160y151720
*1058 xofiller!SHFILL1_RVT!x642680y151720
*1059 xofiller!SHFILL1_RVT!x644200y151720
*1060 xofiller!SHFILL1_RVT!x645720y151720
*1061 xofiller!SHFILL1_RVT!x647240y151720
*1062 xofiller!SHFILL1_RVT!x648760y151720
*1063 xofiller!SHFILL1_RVT!x650280y151720
*1064 xofiller!SHFILL1_RVT!x651800y151720
*1065 xofiller!SHFILL1_RVT!x653320y151720
*1066 xofiller!SHFILL1_RVT!x654840y151720
*1067 xofiller!SHFILL1_RVT!x656360y151720
*1068 xofiller!SHFILL1_RVT!x657880y151720
*1069 xofiller!SHFILL1_RVT!x659400y151720
*1070 xofiller!SHFILL1_RVT!x660920y151720
*1071 xofiller!SHFILL1_RVT!x662440y151720
*1072 xofiller!SHFILL1_RVT!x663960y151720
*1073 xofiller!SHFILL1_RVT!x665480y151720
*1074 xofiller!SHFILL1_RVT!x667000y151720
*1075 xofiller!SHFILL1_RVT!x668520y151720
*1076 xofiller!SHFILL1_RVT!x670040y151720
*1077 xofiller!SHFILL1_RVT!x671560y151720
*1078 xofiller!SHFILL1_RVT!x673080y151720
*1079 xofiller!SHFILL1_RVT!x674600y151720
*1080 xofiller!SHFILL1_RVT!x676120y151720
*1081 xofiller!SHFILL1_RVT!x677640y151720
*1082 xofiller!SHFILL1_RVT!x679160y151720
*1083 xofiller!SHFILL1_RVT!x680680y151720
*1084 xofiller!SHFILL1_RVT!x682200y151720
*1085 xofiller!SHFILL1_RVT!x683720y151720
*1086 xofiller!SHFILL1_RVT!x685240y151720
*1087 xofiller!SHFILL1_RVT!x686760y151720
*1088 xofiller!SHFILL1_RVT!x688280y151720
*1089 xofiller!SHFILL1_RVT!x689800y151720
*1090 xofiller!SHFILL1_RVT!x691320y151720
*1091 xofiller!SHFILL1_RVT!x692840y151720
*1092 xofiller!SHFILL1_RVT!x694360y151720
*1093 xofiller!SHFILL1_RVT!x695880y151720
*1094 xofiller!SHFILL1_RVT!x697400y151720
*1095 xofiller!SHFILL1_RVT!x698920y151720
*1096 xofiller!SHFILL1_RVT!x700440y151720
*1097 xofiller!SHFILL1_RVT!x701960y151720
*1098 xofiller!SHFILL1_RVT!x703480y151720
*1099 xofiller!SHFILL1_RVT!x705000y151720
*1100 xofiller!SHFILL1_RVT!x706520y151720
*1101 xofiller!SHFILL1_RVT!x708040y151720
*1102 xofiller!SHFILL1_RVT!x709560y151720
*1103 xofiller!SHFILL1_RVT!x711080y151720
*1104 xofiller!SHFILL1_RVT!x712600y151720
*1105 xofiller!SHFILL1_RVT!x714120y151720
*1106 xofiller!SHFILL1_RVT!x715640y151720
*1107 xofiller!SHFILL1_RVT!x717160y151720
*1108 xofiller!SHFILL1_RVT!x718680y151720
*1109 xofiller!SHFILL1_RVT!x720200y151720
*1110 xofiller!SHFILL1_RVT!x721720y151720
*1111 xofiller!SHFILL1_RVT!x723240y151720
*1112 xofiller!SHFILL1_RVT!x724760y151720
*1113 xofiller!SHFILL1_RVT!x726280y151720
*1114 xofiller!SHFILL1_RVT!x727800y151720
*1115 xofiller!SHFILL1_RVT!x729320y151720
*1116 xofiller!SHFILL1_RVT!x730840y151720
*1117 xofiller!SHFILL1_RVT!x732360y151720
*1118 xofiller!SHFILL1_RVT!x733880y151720
*1119 xofiller!SHFILL1_RVT!x735400y151720
*1120 xofiller!SHFILL1_RVT!x736920y151720
*1121 xofiller!SHFILL1_RVT!x738440y151720
*1122 xofiller!SHFILL1_RVT!x739960y151720
*1123 xofiller!SHFILL1_RVT!x741480y151720
*1124 xofiller!SHFILL1_RVT!x743000y151720
*1125 xofiller!SHFILL1_RVT!x744520y151720
*1126 xofiller!SHFILL1_RVT!x135000y168440
*1127 xofiller!SHFILL1_RVT!x136520y168440
*1128 xofiller!SHFILL1_RVT!x138040y168440
*1129 xofiller!SHFILL1_RVT!x139560y168440
*1130 xofiller!SHFILL1_RVT!x141080y168440
*1131 xofiller!SHFILL1_RVT!x142600y168440
*1132 xofiller!SHFILL1_RVT!x144120y168440
*1133 xofiller!SHFILL1_RVT!x145640y168440
*1134 xofiller!SHFILL1_RVT!x147160y168440
*1135 xofiller!SHFILL1_RVT!x148680y168440
*1136 xofiller!SHFILL1_RVT!x150200y168440
*1137 xofiller!SHFILL1_RVT!x151720y168440
*1138 xofiller!SHFILL1_RVT!x153240y168440
*1139 xofiller!SHFILL1_RVT!x154760y168440
*1140 xofiller!SHFILL1_RVT!x156280y168440
*1141 xofiller!SHFILL1_RVT!x157800y168440
*1142 xofiller!SHFILL1_RVT!x159320y168440
*1143 xofiller!SHFILL1_RVT!x160840y168440
*1144 xofiller!SHFILL1_RVT!x162360y168440
*1145 xofiller!SHFILL1_RVT!x163880y168440
*1146 xofiller!SHFILL1_RVT!x165400y168440
*1147 xofiller!SHFILL1_RVT!x166920y168440
*1148 xofiller!SHFILL1_RVT!x168440y168440
*1149 xofiller!SHFILL1_RVT!x169960y168440
*1150 xofiller!SHFILL1_RVT!x171480y168440
*1151 xofiller!SHFILL1_RVT!x173000y168440
*1152 xofiller!SHFILL1_RVT!x174520y168440
*1153 xofiller!SHFILL1_RVT!x176040y168440
*1154 xofiller!SHFILL1_RVT!x177560y168440
*1155 xofiller!SHFILL1_RVT!x179080y168440
*1156 xofiller!SHFILL1_RVT!x180600y168440
*1157 xofiller!SHFILL1_RVT!x182120y168440
*1158 xofiller!SHFILL1_RVT!x183640y168440
*1159 xofiller!SHFILL1_RVT!x185160y168440
*1160 xofiller!SHFILL1_RVT!x186680y168440
*1161 xofiller!SHFILL1_RVT!x188200y168440
*1162 xofiller!SHFILL1_RVT!x189720y168440
*1163 xofiller!SHFILL1_RVT!x191240y168440
*1164 xofiller!SHFILL1_RVT!x192760y168440
*1165 xofiller!SHFILL1_RVT!x194280y168440
*1166 xofiller!SHFILL1_RVT!x195800y168440
*1167 xofiller!SHFILL1_RVT!x197320y168440
*1168 xofiller!SHFILL1_RVT!x198840y168440
*1169 xofiller!SHFILL1_RVT!x200360y168440
*1170 xofiller!SHFILL1_RVT!x201880y168440
*1171 xofiller!SHFILL1_RVT!x203400y168440
*1172 xofiller!SHFILL1_RVT!x204920y168440
*1173 xofiller!SHFILL1_RVT!x206440y168440
*1174 xofiller!SHFILL1_RVT!x207960y168440
*1175 xofiller!SHFILL1_RVT!x209480y168440
*1176 xofiller!SHFILL1_RVT!x211000y168440
*1177 xofiller!SHFILL1_RVT!x212520y168440
*1178 xofiller!SHFILL1_RVT!x214040y168440
*1179 xofiller!SHFILL1_RVT!x215560y168440
*1180 xofiller!SHFILL1_RVT!x217080y168440
*1181 xofiller!SHFILL1_RVT!x218600y168440
*1182 xofiller!SHFILL1_RVT!x220120y168440
*1183 xofiller!SHFILL1_RVT!x221640y168440
*1184 xofiller!SHFILL1_RVT!x223160y168440
*1185 xofiller!SHFILL1_RVT!x224680y168440
*1186 xofiller!SHFILL1_RVT!x226200y168440
*1187 xofiller!SHFILL1_RVT!x227720y168440
*1188 xofiller!SHFILL1_RVT!x229240y168440
*1189 xofiller!SHFILL1_RVT!x230760y168440
*1190 xofiller!SHFILL1_RVT!x232280y168440
*1191 xofiller!SHFILL1_RVT!x233800y168440
*1192 xofiller!SHFILL1_RVT!x235320y168440
*1193 xofiller!SHFILL1_RVT!x236840y168440
*1194 xofiller!SHFILL1_RVT!x238360y168440
*1195 xofiller!SHFILL1_RVT!x239880y168440
*1196 xofiller!SHFILL1_RVT!x241400y168440
*1197 xofiller!SHFILL1_RVT!x242920y168440
*1198 xofiller!SHFILL1_RVT!x244440y168440
*1199 xofiller!SHFILL1_RVT!x245960y168440
*1200 xofiller!SHFILL1_RVT!x247480y168440
*1201 xofiller!SHFILL1_RVT!x249000y168440
*1202 xofiller!SHFILL1_RVT!x250520y168440
*1203 xofiller!SHFILL1_RVT!x252040y168440
*1204 xofiller!SHFILL1_RVT!x253560y168440
*1205 xofiller!SHFILL1_RVT!x255080y168440
*1206 xofiller!SHFILL1_RVT!x256600y168440
*1207 xofiller!SHFILL1_RVT!x258120y168440
*1208 xofiller!SHFILL1_RVT!x271800y168440
*1209 xofiller!SHFILL1_RVT!x273320y168440
*1210 xofiller!SHFILL1_RVT!x274840y168440
*1211 xofiller!SHFILL1_RVT!x276360y168440
*1212 xofiller!SHFILL1_RVT!x277880y168440
*1213 xofiller!SHFILL1_RVT!x279400y168440
*1214 xofiller!SHFILL1_RVT!x280920y168440
*1215 xofiller!SHFILL1_RVT!x282440y168440
*1216 xofiller!SHFILL1_RVT!x283960y168440
*1217 xofiller!SHFILL1_RVT!x285480y168440
*1218 xofiller!SHFILL1_RVT!x287000y168440
*1219 xofiller!SHFILL1_RVT!x288520y168440
*1220 xofiller!SHFILL1_RVT!x290040y168440
*1221 xofiller!SHFILL1_RVT!x291560y168440
*1222 xofiller!SHFILL1_RVT!x293080y168440
*1223 xofiller!SHFILL1_RVT!x294600y168440
*1224 xofiller!SHFILL1_RVT!x296120y168440
*1225 xofiller!SHFILL1_RVT!x297640y168440
*1226 xofiller!SHFILL1_RVT!x299160y168440
*1227 xofiller!SHFILL1_RVT!x300680y168440
*1228 xofiller!SHFILL1_RVT!x302200y168440
*1229 xofiller!SHFILL1_RVT!x303720y168440
*1230 xofiller!SHFILL1_RVT!x305240y168440
*1231 xofiller!SHFILL1_RVT!x306760y168440
*1232 xofiller!SHFILL1_RVT!x308280y168440
*1233 xofiller!SHFILL1_RVT!x309800y168440
*1234 xofiller!SHFILL1_RVT!x311320y168440
*1235 xofiller!SHFILL1_RVT!x312840y168440
*1236 xofiller!SHFILL1_RVT!x314360y168440
*1237 xofiller!SHFILL1_RVT!x315880y168440
*1238 xofiller!SHFILL1_RVT!x317400y168440
*1239 xofiller!SHFILL1_RVT!x318920y168440
*1240 xofiller!SHFILL1_RVT!x320440y168440
*1241 xofiller!SHFILL1_RVT!x321960y168440
*1242 xofiller!SHFILL1_RVT!x323480y168440
*1243 xofiller!SHFILL1_RVT!x325000y168440
*1244 xofiller!SHFILL1_RVT!x326520y168440
*1245 xofiller!SHFILL1_RVT!x328040y168440
*1246 xofiller!SHFILL1_RVT!x329560y168440
*1247 xofiller!SHFILL1_RVT!x331080y168440
*1248 xofiller!SHFILL1_RVT!x332600y168440
*1249 xofiller!SHFILL1_RVT!x334120y168440
*1250 xofiller!SHFILL1_RVT!x335640y168440
*1251 xofiller!SHFILL1_RVT!x337160y168440
*1252 xofiller!SHFILL1_RVT!x338680y168440
*1253 xofiller!SHFILL1_RVT!x340200y168440
*1254 xofiller!SHFILL1_RVT!x367560y168440
*1255 xofiller!SHFILL1_RVT!x369080y168440
*1256 xofiller!SHFILL1_RVT!x370600y168440
*1257 xofiller!SHFILL1_RVT!x372120y168440
*1258 xofiller!SHFILL1_RVT!x373640y168440
*1259 xofiller!SHFILL1_RVT!x375160y168440
*1260 xofiller!SHFILL1_RVT!x376680y168440
*1261 xofiller!SHFILL1_RVT!x378200y168440
*1262 xofiller!SHFILL1_RVT!x379720y168440
*1263 xofiller!SHFILL1_RVT!x381240y168440
*1264 xofiller!SHFILL1_RVT!x382760y168440
*1265 xofiller!SHFILL1_RVT!x384280y168440
*1266 xofiller!SHFILL1_RVT!x385800y168440
*1267 xofiller!SHFILL1_RVT!x387320y168440
*1268 xofiller!SHFILL1_RVT!x388840y168440
*1269 xofiller!SHFILL1_RVT!x390360y168440
*1270 xofiller!SHFILL1_RVT!x391880y168440
*1271 xofiller!SHFILL1_RVT!x393400y168440
*1272 xofiller!SHFILL1_RVT!x394920y168440
*1273 xofiller!SHFILL1_RVT!x396440y168440
*1274 xofiller!SHFILL1_RVT!x397960y168440
*1275 xofiller!SHFILL1_RVT!x399480y168440
*1276 xofiller!SHFILL1_RVT!x401000y168440
*1277 xofiller!SHFILL1_RVT!x402520y168440
*1278 xofiller!SHFILL1_RVT!x404040y168440
*1279 xofiller!SHFILL1_RVT!x405560y168440
*1280 xofiller!SHFILL1_RVT!x407080y168440
*1281 xofiller!SHFILL1_RVT!x408600y168440
*1282 xofiller!SHFILL1_RVT!x410120y168440
*1283 xofiller!SHFILL1_RVT!x411640y168440
*1284 xofiller!SHFILL1_RVT!x413160y168440
*1285 xofiller!SHFILL1_RVT!x414680y168440
*1286 xofiller!SHFILL1_RVT!x416200y168440
*1287 xofiller!SHFILL1_RVT!x417720y168440
*1288 xofiller!SHFILL1_RVT!x419240y168440
*1289 xofiller!SHFILL1_RVT!x420760y168440
*1290 xofiller!SHFILL1_RVT!x422280y168440
*1291 xofiller!SHFILL1_RVT!x423800y168440
*1292 xofiller!SHFILL1_RVT!x425320y168440
*1293 xofiller!SHFILL1_RVT!x426840y168440
*1294 xofiller!SHFILL1_RVT!x428360y168440
*1295 xofiller!SHFILL1_RVT!x429880y168440
*1296 xofiller!SHFILL1_RVT!x431400y168440
*1297 xofiller!SHFILL1_RVT!x432920y168440
*1298 xofiller!SHFILL1_RVT!x434440y168440
*1299 xofiller!SHFILL1_RVT!x435960y168440
*1300 xofiller!SHFILL1_RVT!x437480y168440
*1301 xofiller!SHFILL1_RVT!x439000y168440
*1302 xofiller!SHFILL1_RVT!x440520y168440
*1303 xofiller!SHFILL1_RVT!x442040y168440
*1304 xofiller!SHFILL1_RVT!x443560y168440
*1305 xofiller!SHFILL1_RVT!x445080y168440
*1306 xofiller!SHFILL1_RVT!x446600y168440
*1307 xofiller!SHFILL1_RVT!x448120y168440
*1308 xofiller!SHFILL1_RVT!x449640y168440
*1309 xofiller!SHFILL1_RVT!x451160y168440
*1310 xofiller!SHFILL1_RVT!x452680y168440
*1311 xofiller!SHFILL1_RVT!x454200y168440
*1312 xofiller!SHFILL1_RVT!x455720y168440
*1313 xofiller!SHFILL1_RVT!x457240y168440
*1314 xofiller!SHFILL1_RVT!x458760y168440
*1315 xofiller!SHFILL1_RVT!x460280y168440
*1316 xofiller!SHFILL1_RVT!x461800y168440
*1317 xofiller!SHFILL1_RVT!x463320y168440
*1318 xofiller!SHFILL1_RVT!x464840y168440
*1319 xofiller!SHFILL1_RVT!x466360y168440
*1320 xofiller!SHFILL1_RVT!x467880y168440
*1321 xofiller!SHFILL1_RVT!x469400y168440
*1322 xofiller!SHFILL1_RVT!x470920y168440
*1323 xofiller!SHFILL1_RVT!x472440y168440
*1324 xofiller!SHFILL1_RVT!x473960y168440
*1325 xofiller!SHFILL1_RVT!x475480y168440
*1326 xofiller!SHFILL1_RVT!x477000y168440
*1327 xofiller!SHFILL1_RVT!x478520y168440
*1328 xofiller!SHFILL1_RVT!x480040y168440
*1329 xofiller!SHFILL1_RVT!x481560y168440
*1330 xofiller!SHFILL1_RVT!x483080y168440
*1331 xofiller!SHFILL1_RVT!x484600y168440
*1332 xofiller!SHFILL1_RVT!x486120y168440
*1333 xofiller!SHFILL1_RVT!x487640y168440
*1334 xofiller!SHFILL1_RVT!x489160y168440
*1335 xofiller!SHFILL1_RVT!x490680y168440
*1336 xofiller!SHFILL1_RVT!x492200y168440
*1337 xofiller!SHFILL1_RVT!x493720y168440
*1338 xofiller!SHFILL1_RVT!x495240y168440
*1339 xofiller!SHFILL1_RVT!x496760y168440
*1340 xofiller!SHFILL1_RVT!x498280y168440
*1341 xofiller!SHFILL1_RVT!x499800y168440
*1342 xofiller!SHFILL1_RVT!x501320y168440
*1343 xofiller!SHFILL1_RVT!x502840y168440
*1344 xofiller!SHFILL1_RVT!x504360y168440
*1345 xofiller!SHFILL1_RVT!x505880y168440
*1346 xofiller!SHFILL1_RVT!x507400y168440
*1347 xofiller!SHFILL1_RVT!x508920y168440
*1348 xofiller!SHFILL1_RVT!x510440y168440
*1349 xofiller!SHFILL1_RVT!x511960y168440
*1350 xofiller!SHFILL1_RVT!x513480y168440
*1351 xofiller!SHFILL1_RVT!x515000y168440
*1352 xofiller!SHFILL1_RVT!x516520y168440
*1353 xofiller!SHFILL1_RVT!x518040y168440
*1354 xofiller!SHFILL1_RVT!x519560y168440
*1355 xofiller!SHFILL1_RVT!x521080y168440
*1356 xofiller!SHFILL1_RVT!x522600y168440
*1357 xofiller!SHFILL1_RVT!x524120y168440
*1358 xofiller!SHFILL1_RVT!x525640y168440
*1359 xofiller!SHFILL1_RVT!x527160y168440
*1360 xofiller!SHFILL1_RVT!x528680y168440
*1361 xofiller!SHFILL1_RVT!x530200y168440
*1362 xofiller!SHFILL1_RVT!x531720y168440
*1363 xofiller!SHFILL1_RVT!x533240y168440
*1364 xofiller!SHFILL1_RVT!x534760y168440
*1365 xofiller!SHFILL1_RVT!x536280y168440
*1366 xofiller!SHFILL1_RVT!x537800y168440
*1367 xofiller!SHFILL1_RVT!x539320y168440
*1368 xofiller!SHFILL1_RVT!x540840y168440
*1369 xofiller!SHFILL1_RVT!x542360y168440
*1370 xofiller!SHFILL1_RVT!x543880y168440
*1371 xofiller!SHFILL1_RVT!x545400y168440
*1372 xofiller!SHFILL1_RVT!x546920y168440
*1373 xofiller!SHFILL1_RVT!x548440y168440
*1374 xofiller!SHFILL1_RVT!x549960y168440
*1375 xofiller!SHFILL1_RVT!x551480y168440
*1376 xofiller!SHFILL1_RVT!x553000y168440
*1377 xofiller!SHFILL1_RVT!x554520y168440
*1378 xofiller!SHFILL1_RVT!x556040y168440
*1379 xofiller!SHFILL1_RVT!x557560y168440
*1380 xofiller!SHFILL1_RVT!x559080y168440
*1381 xofiller!SHFILL1_RVT!x560600y168440
*1382 xofiller!SHFILL1_RVT!x562120y168440
*1383 xofiller!SHFILL1_RVT!x563640y168440
*1384 xofiller!SHFILL1_RVT!x565160y168440
*1385 xofiller!SHFILL1_RVT!x566680y168440
*1386 xofiller!SHFILL1_RVT!x568200y168440
*1387 xofiller!SHFILL1_RVT!x569720y168440
*1388 xofiller!SHFILL1_RVT!x571240y168440
*1389 xofiller!SHFILL1_RVT!x572760y168440
*1390 xofiller!SHFILL1_RVT!x574280y168440
*1391 xofiller!SHFILL1_RVT!x575800y168440
*1392 xofiller!SHFILL1_RVT!x577320y168440
*1393 xofiller!SHFILL1_RVT!x578840y168440
*1394 xofiller!SHFILL1_RVT!x580360y168440
*1395 xofiller!SHFILL1_RVT!x581880y168440
*1396 xofiller!SHFILL1_RVT!x583400y168440
*1397 xofiller!SHFILL1_RVT!x584920y168440
*1398 xofiller!SHFILL1_RVT!x586440y168440
*1399 xofiller!SHFILL1_RVT!x587960y168440
*1400 xofiller!SHFILL1_RVT!x589480y168440
*1401 xofiller!SHFILL1_RVT!x591000y168440
*1402 xofiller!SHFILL1_RVT!x592520y168440
*1403 xofiller!SHFILL1_RVT!x594040y168440
*1404 xofiller!SHFILL1_RVT!x595560y168440
*1405 xofiller!SHFILL1_RVT!x597080y168440
*1406 xofiller!SHFILL1_RVT!x598600y168440
*1407 xofiller!SHFILL1_RVT!x600120y168440
*1408 xofiller!SHFILL1_RVT!x601640y168440
*1409 xofiller!SHFILL1_RVT!x603160y168440
*1410 xofiller!SHFILL1_RVT!x604680y168440
*1411 xofiller!SHFILL1_RVT!x606200y168440
*1412 xofiller!SHFILL1_RVT!x607720y168440
*1413 xofiller!SHFILL1_RVT!x609240y168440
*1414 xofiller!SHFILL1_RVT!x610760y168440
*1415 xofiller!SHFILL1_RVT!x612280y168440
*1416 xofiller!SHFILL1_RVT!x613800y168440
*1417 xofiller!SHFILL1_RVT!x615320y168440
*1418 xofiller!SHFILL1_RVT!x616840y168440
*1419 xofiller!SHFILL1_RVT!x618360y168440
*1420 xofiller!SHFILL1_RVT!x619880y168440
*1421 xofiller!SHFILL1_RVT!x621400y168440
*1422 xofiller!SHFILL1_RVT!x622920y168440
*1423 xofiller!SHFILL1_RVT!x624440y168440
*1424 xofiller!SHFILL1_RVT!x625960y168440
*1425 xofiller!SHFILL1_RVT!x627480y168440
*1426 xofiller!SHFILL1_RVT!x629000y168440
*1427 xofiller!SHFILL1_RVT!x630520y168440
*1428 xofiller!SHFILL1_RVT!x632040y168440
*1429 xofiller!SHFILL1_RVT!x633560y168440
*1430 xofiller!SHFILL1_RVT!x635080y168440
*1431 xofiller!SHFILL1_RVT!x636600y168440
*1432 xofiller!SHFILL1_RVT!x638120y168440
*1433 xofiller!SHFILL1_RVT!x639640y168440
*1434 xofiller!SHFILL1_RVT!x641160y168440
*1435 xofiller!SHFILL1_RVT!x642680y168440
*1436 xofiller!SHFILL1_RVT!x644200y168440
*1437 xofiller!SHFILL1_RVT!x645720y168440
*1438 xofiller!SHFILL1_RVT!x647240y168440
*1439 xofiller!SHFILL1_RVT!x648760y168440
*1440 xofiller!SHFILL1_RVT!x650280y168440
*1441 xofiller!SHFILL1_RVT!x651800y168440
*1442 xofiller!SHFILL1_RVT!x653320y168440
*1443 xofiller!SHFILL1_RVT!x654840y168440
*1444 xofiller!SHFILL1_RVT!x656360y168440
*1445 xofiller!SHFILL1_RVT!x657880y168440
*1446 xofiller!SHFILL1_RVT!x701960y168440
*1447 xofiller!SHFILL1_RVT!x703480y168440
*1448 xofiller!SHFILL1_RVT!x705000y168440
*1449 xofiller!SHFILL1_RVT!x706520y168440
*1450 xofiller!SHFILL1_RVT!x708040y168440
*1451 xofiller!SHFILL1_RVT!x709560y168440
*1452 xofiller!SHFILL1_RVT!x711080y168440
*1453 xofiller!SHFILL1_RVT!x712600y168440
*1454 xofiller!SHFILL1_RVT!x714120y168440
*1455 xofiller!SHFILL1_RVT!x715640y168440
*1456 xofiller!SHFILL1_RVT!x717160y168440
*1457 xofiller!SHFILL1_RVT!x718680y168440
*1458 xofiller!SHFILL1_RVT!x720200y168440
*1459 xofiller!SHFILL1_RVT!x721720y168440
*1460 xofiller!SHFILL1_RVT!x723240y168440
*1461 xofiller!SHFILL1_RVT!x724760y168440
*1462 xofiller!SHFILL1_RVT!x726280y168440
*1463 xofiller!SHFILL1_RVT!x727800y168440
*1464 xofiller!SHFILL1_RVT!x729320y168440
*1465 xofiller!SHFILL1_RVT!x730840y168440
*1466 xofiller!SHFILL1_RVT!x732360y168440
*1467 xofiller!SHFILL1_RVT!x733880y168440
*1468 xofiller!SHFILL1_RVT!x735400y168440
*1469 xofiller!SHFILL1_RVT!x736920y168440
*1470 xofiller!SHFILL1_RVT!x738440y168440
*1471 xofiller!SHFILL1_RVT!x739960y168440
*1472 xofiller!SHFILL1_RVT!x741480y168440
*1473 xofiller!SHFILL1_RVT!x743000y168440
*1474 xofiller!SHFILL1_RVT!x744520y168440
*1475 xofiller!SHFILL1_RVT!x135000y185160
*1476 xofiller!SHFILL1_RVT!x136520y185160
*1477 xofiller!SHFILL1_RVT!x138040y185160
*1478 xofiller!SHFILL1_RVT!x139560y185160
*1479 xofiller!SHFILL1_RVT!x141080y185160
*1480 xofiller!SHFILL1_RVT!x142600y185160
*1481 xofiller!SHFILL1_RVT!x144120y185160
*1482 xofiller!SHFILL1_RVT!x145640y185160
*1483 xofiller!SHFILL1_RVT!x147160y185160
*1484 xofiller!SHFILL1_RVT!x148680y185160
*1485 xofiller!SHFILL1_RVT!x150200y185160
*1486 xofiller!SHFILL1_RVT!x151720y185160
*1487 xofiller!SHFILL1_RVT!x153240y185160
*1488 xofiller!SHFILL1_RVT!x154760y185160
*1489 xofiller!SHFILL1_RVT!x156280y185160
*1490 xofiller!SHFILL1_RVT!x157800y185160
*1491 xofiller!SHFILL1_RVT!x159320y185160
*1492 xofiller!SHFILL1_RVT!x160840y185160
*1493 xofiller!SHFILL1_RVT!x162360y185160
*1494 xofiller!SHFILL1_RVT!x163880y185160
*1495 xofiller!SHFILL1_RVT!x165400y185160
*1496 xofiller!SHFILL1_RVT!x166920y185160
*1497 xofiller!SHFILL1_RVT!x168440y185160
*1498 xofiller!SHFILL1_RVT!x169960y185160
*1499 xofiller!SHFILL1_RVT!x171480y185160
*1500 xofiller!SHFILL1_RVT!x173000y185160
*1501 xofiller!SHFILL1_RVT!x174520y185160
*1502 xofiller!SHFILL1_RVT!x176040y185160
*1503 xofiller!SHFILL1_RVT!x177560y185160
*1504 xofiller!SHFILL1_RVT!x179080y185160
*1505 xofiller!SHFILL1_RVT!x180600y185160
*1506 xofiller!SHFILL1_RVT!x182120y185160
*1507 xofiller!SHFILL1_RVT!x183640y185160
*1508 xofiller!SHFILL1_RVT!x185160y185160
*1509 xofiller!SHFILL1_RVT!x186680y185160
*1510 xofiller!SHFILL1_RVT!x188200y185160
*1511 xofiller!SHFILL1_RVT!x189720y185160
*1512 xofiller!SHFILL1_RVT!x191240y185160
*1513 xofiller!SHFILL1_RVT!x192760y185160
*1514 xofiller!SHFILL1_RVT!x194280y185160
*1515 xofiller!SHFILL1_RVT!x195800y185160
*1516 xofiller!SHFILL1_RVT!x197320y185160
*1517 xofiller!SHFILL1_RVT!x198840y185160
*1518 xofiller!SHFILL1_RVT!x200360y185160
*1519 xofiller!SHFILL1_RVT!x201880y185160
*1520 xofiller!SHFILL1_RVT!x203400y185160
*1521 xofiller!SHFILL1_RVT!x204920y185160
*1522 xofiller!SHFILL1_RVT!x206440y185160
*1523 xofiller!SHFILL1_RVT!x207960y185160
*1524 xofiller!SHFILL1_RVT!x209480y185160
*1525 xofiller!SHFILL1_RVT!x211000y185160
*1526 xofiller!SHFILL1_RVT!x212520y185160
*1527 xofiller!SHFILL1_RVT!x214040y185160
*1528 xofiller!SHFILL1_RVT!x215560y185160
*1529 xofiller!SHFILL1_RVT!x217080y185160
*1530 xofiller!SHFILL1_RVT!x218600y185160
*1531 xofiller!SHFILL1_RVT!x220120y185160
*1532 xofiller!SHFILL1_RVT!x221640y185160
*1533 xofiller!SHFILL1_RVT!x223160y185160
*1534 xofiller!SHFILL1_RVT!x224680y185160
*1535 xofiller!SHFILL1_RVT!x226200y185160
*1536 xofiller!SHFILL1_RVT!x227720y185160
*1537 xofiller!SHFILL1_RVT!x229240y185160
*1538 xofiller!SHFILL1_RVT!x230760y185160
*1539 xofiller!SHFILL1_RVT!x232280y185160
*1540 xofiller!SHFILL1_RVT!x233800y185160
*1541 xofiller!SHFILL1_RVT!x235320y185160
*1542 xofiller!SHFILL1_RVT!x236840y185160
*1543 xofiller!SHFILL1_RVT!x238360y185160
*1544 xofiller!SHFILL1_RVT!x239880y185160
*1545 xofiller!SHFILL1_RVT!x241400y185160
*1546 xofiller!SHFILL1_RVT!x242920y185160
*1547 xofiller!SHFILL1_RVT!x244440y185160
*1548 xofiller!SHFILL1_RVT!x245960y185160
*1549 xofiller!SHFILL1_RVT!x247480y185160
*1550 xofiller!SHFILL1_RVT!x249000y185160
*1551 xofiller!SHFILL1_RVT!x250520y185160
*1552 xofiller!SHFILL1_RVT!x252040y185160
*1553 xofiller!SHFILL1_RVT!x279400y185160
*1554 xofiller!SHFILL1_RVT!x280920y185160
*1555 xofiller!SHFILL1_RVT!x282440y185160
*1556 xofiller!SHFILL1_RVT!x283960y185160
*1557 xofiller!SHFILL1_RVT!x285480y185160
*1558 xofiller!SHFILL1_RVT!x287000y185160
*1559 xofiller!SHFILL1_RVT!x288520y185160
*1560 xofiller!SHFILL1_RVT!x290040y185160
*1561 xofiller!SHFILL1_RVT!x291560y185160
*1562 xofiller!SHFILL1_RVT!x293080y185160
*1563 xofiller!SHFILL1_RVT!x294600y185160
*1564 xofiller!SHFILL1_RVT!x296120y185160
*1565 xofiller!SHFILL1_RVT!x297640y185160
*1566 xofiller!SHFILL1_RVT!x299160y185160
*1567 xofiller!SHFILL1_RVT!x300680y185160
*1568 xofiller!SHFILL1_RVT!x302200y185160
*1569 xofiller!SHFILL1_RVT!x303720y185160
*1570 xofiller!SHFILL1_RVT!x305240y185160
*1571 xofiller!SHFILL1_RVT!x306760y185160
*1572 xofiller!SHFILL1_RVT!x308280y185160
*1573 xofiller!SHFILL1_RVT!x309800y185160
*1574 xofiller!SHFILL1_RVT!x311320y185160
*1575 xofiller!SHFILL1_RVT!x312840y185160
*1576 xofiller!SHFILL1_RVT!x314360y185160
*1577 xofiller!SHFILL1_RVT!x315880y185160
*1578 xofiller!SHFILL1_RVT!x317400y185160
*1579 xofiller!SHFILL1_RVT!x318920y185160
*1580 xofiller!SHFILL1_RVT!x320440y185160
*1581 xofiller!SHFILL1_RVT!x321960y185160
*1582 xofiller!SHFILL1_RVT!x323480y185160
*1583 xofiller!SHFILL1_RVT!x325000y185160
*1584 xofiller!SHFILL1_RVT!x326520y185160
*1585 xofiller!SHFILL1_RVT!x328040y185160
*1586 xofiller!SHFILL1_RVT!x329560y185160
*1587 xofiller!SHFILL1_RVT!x331080y185160
*1588 xofiller!SHFILL1_RVT!x332600y185160
*1589 xofiller!SHFILL1_RVT!x334120y185160
*1590 xofiller!SHFILL1_RVT!x335640y185160
*1591 xofiller!SHFILL1_RVT!x337160y185160
*1592 xofiller!SHFILL1_RVT!x338680y185160
*1593 xofiller!SHFILL1_RVT!x340200y185160
*1594 xofiller!SHFILL1_RVT!x341720y185160
*1595 xofiller!SHFILL1_RVT!x343240y185160
*1596 xofiller!SHFILL1_RVT!x344760y185160
*1597 xofiller!SHFILL1_RVT!x346280y185160
*1598 xofiller!SHFILL1_RVT!x347800y185160
*1599 xofiller!SHFILL1_RVT!x349320y185160
*1600 xofiller!SHFILL1_RVT!x350840y185160
*1601 xofiller!SHFILL1_RVT!x352360y185160
*1602 xofiller!SHFILL1_RVT!x353880y185160
*1603 xofiller!SHFILL1_RVT!x355400y185160
*1604 xofiller!SHFILL1_RVT!x356920y185160
*1605 xofiller!SHFILL1_RVT!x358440y185160
*1606 xofiller!SHFILL1_RVT!x359960y185160
*1607 xofiller!SHFILL1_RVT!x361480y185160
*1608 xofiller!SHFILL1_RVT!x363000y185160
*1609 xofiller!SHFILL1_RVT!x364520y185160
*1610 xofiller!SHFILL1_RVT!x366040y185160
*1611 xofiller!SHFILL1_RVT!x367560y185160
*1612 xofiller!SHFILL1_RVT!x369080y185160
*1613 xofiller!SHFILL1_RVT!x370600y185160
*1614 xofiller!SHFILL1_RVT!x372120y185160
*1615 xofiller!SHFILL1_RVT!x373640y185160
*1616 xofiller!SHFILL1_RVT!x375160y185160
*1617 xofiller!SHFILL1_RVT!x376680y185160
*1618 xofiller!SHFILL1_RVT!x378200y185160
*1619 xofiller!SHFILL1_RVT!x379720y185160
*1620 xofiller!SHFILL1_RVT!x381240y185160
*1621 xofiller!SHFILL1_RVT!x382760y185160
*1622 xofiller!SHFILL1_RVT!x384280y185160
*1623 xofiller!SHFILL1_RVT!x385800y185160
*1624 xofiller!SHFILL1_RVT!x387320y185160
*1625 xofiller!SHFILL1_RVT!x388840y185160
*1626 xofiller!SHFILL1_RVT!x390360y185160
*1627 xofiller!SHFILL1_RVT!x391880y185160
*1628 xofiller!SHFILL1_RVT!x393400y185160
*1629 xofiller!SHFILL1_RVT!x394920y185160
*1630 xofiller!SHFILL1_RVT!x396440y185160
*1631 xofiller!SHFILL1_RVT!x397960y185160
*1632 xofiller!SHFILL1_RVT!x399480y185160
*1633 xofiller!SHFILL1_RVT!x401000y185160
*1634 xofiller!SHFILL1_RVT!x402520y185160
*1635 xofiller!SHFILL1_RVT!x404040y185160
*1636 xofiller!SHFILL1_RVT!x420760y185160
*1637 xofiller!SHFILL1_RVT!x422280y185160
*1638 xofiller!SHFILL1_RVT!x423800y185160
*1639 xofiller!SHFILL1_RVT!x425320y185160
*1640 xofiller!SHFILL1_RVT!x426840y185160
*1641 xofiller!SHFILL1_RVT!x428360y185160
*1642 xofiller!SHFILL1_RVT!x429880y185160
*1643 xofiller!SHFILL1_RVT!x431400y185160
*1644 xofiller!SHFILL1_RVT!x432920y185160
*1645 xofiller!SHFILL1_RVT!x434440y185160
*1646 xofiller!SHFILL1_RVT!x435960y185160
*1647 xofiller!SHFILL1_RVT!x437480y185160
*1648 xofiller!SHFILL1_RVT!x439000y185160
*1649 xofiller!SHFILL1_RVT!x440520y185160
*1650 xofiller!SHFILL1_RVT!x442040y185160
*1651 xofiller!SHFILL1_RVT!x443560y185160
*1652 xofiller!SHFILL1_RVT!x445080y185160
*1653 xofiller!SHFILL1_RVT!x446600y185160
*1654 xofiller!SHFILL1_RVT!x448120y185160
*1655 xofiller!SHFILL1_RVT!x449640y185160
*1656 xofiller!SHFILL1_RVT!x451160y185160
*1657 xofiller!SHFILL1_RVT!x452680y185160
*1658 xofiller!SHFILL1_RVT!x454200y185160
*1659 xofiller!SHFILL1_RVT!x455720y185160
*1660 xofiller!SHFILL1_RVT!x457240y185160
*1661 xofiller!SHFILL1_RVT!x458760y185160
*1662 xofiller!SHFILL1_RVT!x460280y185160
*1663 xofiller!SHFILL1_RVT!x461800y185160
*1664 xofiller!SHFILL1_RVT!x463320y185160
*1665 xofiller!SHFILL1_RVT!x464840y185160
*1666 xofiller!SHFILL1_RVT!x466360y185160
*1667 xofiller!SHFILL1_RVT!x467880y185160
*1668 xofiller!SHFILL1_RVT!x469400y185160
*1669 xofiller!SHFILL1_RVT!x470920y185160
*1670 xofiller!SHFILL1_RVT!x472440y185160
*1671 xofiller!SHFILL1_RVT!x473960y185160
*1672 xofiller!SHFILL1_RVT!x475480y185160
*1673 xofiller!SHFILL1_RVT!x477000y185160
*1674 xofiller!SHFILL1_RVT!x478520y185160
*1675 xofiller!SHFILL1_RVT!x480040y185160
*1676 xofiller!SHFILL1_RVT!x481560y185160
*1677 xofiller!SHFILL1_RVT!x483080y185160
*1678 xofiller!SHFILL1_RVT!x484600y185160
*1679 xofiller!SHFILL1_RVT!x486120y185160
*1680 xofiller!SHFILL1_RVT!x487640y185160
*1681 xofiller!SHFILL1_RVT!x489160y185160
*1682 xofiller!SHFILL1_RVT!x490680y185160
*1683 xofiller!SHFILL1_RVT!x492200y185160
*1684 xofiller!SHFILL1_RVT!x493720y185160
*1685 xofiller!SHFILL1_RVT!x495240y185160
*1686 xofiller!SHFILL1_RVT!x496760y185160
*1687 xofiller!SHFILL1_RVT!x498280y185160
*1688 xofiller!SHFILL1_RVT!x499800y185160
*1689 xofiller!SHFILL1_RVT!x501320y185160
*1690 xofiller!SHFILL1_RVT!x502840y185160
*1691 xofiller!SHFILL1_RVT!x504360y185160
*1692 xofiller!SHFILL1_RVT!x505880y185160
*1693 xofiller!SHFILL1_RVT!x507400y185160
*1694 xofiller!SHFILL1_RVT!x508920y185160
*1695 xofiller!SHFILL1_RVT!x510440y185160
*1696 xofiller!SHFILL1_RVT!x511960y185160
*1697 xofiller!SHFILL1_RVT!x513480y185160
*1698 xofiller!SHFILL1_RVT!x515000y185160
*1699 xofiller!SHFILL1_RVT!x516520y185160
*1700 xofiller!SHFILL1_RVT!x518040y185160
*1701 xofiller!SHFILL1_RVT!x519560y185160
*1702 xofiller!SHFILL1_RVT!x521080y185160
*1703 xofiller!SHFILL1_RVT!x522600y185160
*1704 xofiller!SHFILL1_RVT!x524120y185160
*1705 xofiller!SHFILL1_RVT!x525640y185160
*1706 xofiller!SHFILL1_RVT!x527160y185160
*1707 xofiller!SHFILL1_RVT!x528680y185160
*1708 xofiller!SHFILL1_RVT!x530200y185160
*1709 xofiller!SHFILL1_RVT!x531720y185160
*1710 xofiller!SHFILL1_RVT!x533240y185160
*1711 xofiller!SHFILL1_RVT!x534760y185160
*1712 xofiller!SHFILL1_RVT!x536280y185160
*1713 xofiller!SHFILL1_RVT!x537800y185160
*1714 xofiller!SHFILL1_RVT!x539320y185160
*1715 xofiller!SHFILL1_RVT!x540840y185160
*1716 xofiller!SHFILL1_RVT!x542360y185160
*1717 xofiller!SHFILL1_RVT!x543880y185160
*1718 xofiller!SHFILL1_RVT!x545400y185160
*1719 xofiller!SHFILL1_RVT!x546920y185160
*1720 xofiller!SHFILL1_RVT!x548440y185160
*1721 xofiller!SHFILL1_RVT!x549960y185160
*1722 xofiller!SHFILL1_RVT!x551480y185160
*1723 xofiller!SHFILL1_RVT!x553000y185160
*1724 xofiller!SHFILL1_RVT!x554520y185160
*1725 xofiller!SHFILL1_RVT!x556040y185160
*1726 xofiller!SHFILL1_RVT!x557560y185160
*1727 xofiller!SHFILL1_RVT!x559080y185160
*1728 xofiller!SHFILL1_RVT!x560600y185160
*1729 xofiller!SHFILL1_RVT!x562120y185160
*1730 xofiller!SHFILL1_RVT!x563640y185160
*1731 xofiller!SHFILL1_RVT!x565160y185160
*1732 xofiller!SHFILL1_RVT!x566680y185160
*1733 xofiller!SHFILL1_RVT!x568200y185160
*1734 xofiller!SHFILL1_RVT!x569720y185160
*1735 xofiller!SHFILL1_RVT!x571240y185160
*1736 xofiller!SHFILL1_RVT!x572760y185160
*1737 xofiller!SHFILL1_RVT!x574280y185160
*1738 xofiller!SHFILL1_RVT!x575800y185160
*1739 xofiller!SHFILL1_RVT!x577320y185160
*1740 xofiller!SHFILL1_RVT!x578840y185160
*1741 xofiller!SHFILL1_RVT!x580360y185160
*1742 xofiller!SHFILL1_RVT!x581880y185160
*1743 xofiller!SHFILL1_RVT!x583400y185160
*1744 xofiller!SHFILL1_RVT!x584920y185160
*1745 xofiller!SHFILL1_RVT!x586440y185160
*1746 xofiller!SHFILL1_RVT!x587960y185160
*1747 xofiller!SHFILL1_RVT!x589480y185160
*1748 xofiller!SHFILL1_RVT!x591000y185160
*1749 xofiller!SHFILL1_RVT!x592520y185160
*1750 xofiller!SHFILL1_RVT!x594040y185160
*1751 xofiller!SHFILL1_RVT!x595560y185160
*1752 xofiller!SHFILL1_RVT!x597080y185160
*1753 xofiller!SHFILL1_RVT!x598600y185160
*1754 xofiller!SHFILL1_RVT!x600120y185160
*1755 xofiller!SHFILL1_RVT!x601640y185160
*1756 xofiller!SHFILL1_RVT!x603160y185160
*1757 xofiller!SHFILL1_RVT!x604680y185160
*1758 xofiller!SHFILL1_RVT!x606200y185160
*1759 xofiller!SHFILL1_RVT!x607720y185160
*1760 xofiller!SHFILL1_RVT!x609240y185160
*1761 xofiller!SHFILL1_RVT!x610760y185160
*1762 xofiller!SHFILL1_RVT!x612280y185160
*1763 xofiller!SHFILL1_RVT!x613800y185160
*1764 xofiller!SHFILL1_RVT!x615320y185160
*1765 xofiller!SHFILL1_RVT!x616840y185160
*1766 xofiller!SHFILL1_RVT!x618360y185160
*1767 xofiller!SHFILL1_RVT!x619880y185160
*1768 xofiller!SHFILL1_RVT!x621400y185160
*1769 xofiller!SHFILL1_RVT!x622920y185160
*1770 xofiller!SHFILL1_RVT!x624440y185160
*1771 xofiller!SHFILL1_RVT!x625960y185160
*1772 xofiller!SHFILL1_RVT!x627480y185160
*1773 xofiller!SHFILL1_RVT!x629000y185160
*1774 xofiller!SHFILL1_RVT!x656360y185160
*1775 xofiller!SHFILL1_RVT!x657880y185160
*1776 xofiller!SHFILL1_RVT!x705000y185160
*1777 xofiller!SHFILL1_RVT!x706520y185160
*1778 xofiller!SHFILL1_RVT!x708040y185160
*1779 xofiller!SHFILL1_RVT!x709560y185160
*1780 xofiller!SHFILL1_RVT!x711080y185160
*1781 xofiller!SHFILL1_RVT!x712600y185160
*1782 xofiller!SHFILL1_RVT!x714120y185160
*1783 xofiller!SHFILL1_RVT!x715640y185160
*1784 xofiller!SHFILL1_RVT!x717160y185160
*1785 xofiller!SHFILL1_RVT!x718680y185160
*1786 xofiller!SHFILL1_RVT!x720200y185160
*1787 xofiller!SHFILL1_RVT!x721720y185160
*1788 xofiller!SHFILL1_RVT!x723240y185160
*1789 xofiller!SHFILL1_RVT!x724760y185160
*1790 xofiller!SHFILL1_RVT!x726280y185160
*1791 xofiller!SHFILL1_RVT!x727800y185160
*1792 xofiller!SHFILL1_RVT!x729320y185160
*1793 xofiller!SHFILL1_RVT!x730840y185160
*1794 xofiller!SHFILL1_RVT!x732360y185160
*1795 xofiller!SHFILL1_RVT!x733880y185160
*1796 xofiller!SHFILL1_RVT!x735400y185160
*1797 xofiller!SHFILL1_RVT!x736920y185160
*1798 xofiller!SHFILL1_RVT!x738440y185160
*1799 xofiller!SHFILL1_RVT!x739960y185160
*1800 xofiller!SHFILL1_RVT!x741480y185160
*1801 xofiller!SHFILL1_RVT!x743000y185160
*1802 xofiller!SHFILL1_RVT!x744520y185160
*1803 xofiller!SHFILL1_RVT!x135000y201880
*1804 xofiller!SHFILL1_RVT!x136520y201880
*1805 xofiller!SHFILL1_RVT!x138040y201880
*1806 xofiller!SHFILL1_RVT!x139560y201880
*1807 xofiller!SHFILL1_RVT!x141080y201880
*1808 xofiller!SHFILL1_RVT!x142600y201880
*1809 xofiller!SHFILL1_RVT!x144120y201880
*1810 xofiller!SHFILL1_RVT!x145640y201880
*1811 xofiller!SHFILL1_RVT!x147160y201880
*1812 xofiller!SHFILL1_RVT!x148680y201880
*1813 xofiller!SHFILL1_RVT!x150200y201880
*1814 xofiller!SHFILL1_RVT!x151720y201880
*1815 xofiller!SHFILL1_RVT!x153240y201880
*1816 xofiller!SHFILL1_RVT!x154760y201880
*1817 xofiller!SHFILL1_RVT!x156280y201880
*1818 xofiller!SHFILL1_RVT!x157800y201880
*1819 xofiller!SHFILL1_RVT!x159320y201880
*1820 xofiller!SHFILL1_RVT!x160840y201880
*1821 xofiller!SHFILL1_RVT!x162360y201880
*1822 xofiller!SHFILL1_RVT!x163880y201880
*1823 xofiller!SHFILL1_RVT!x165400y201880
*1824 xofiller!SHFILL1_RVT!x166920y201880
*1825 xofiller!SHFILL1_RVT!x168440y201880
*1826 xofiller!SHFILL1_RVT!x169960y201880
*1827 xofiller!SHFILL1_RVT!x171480y201880
*1828 xofiller!SHFILL1_RVT!x173000y201880
*1829 xofiller!SHFILL1_RVT!x174520y201880
*1830 xofiller!SHFILL1_RVT!x176040y201880
*1831 xofiller!SHFILL1_RVT!x177560y201880
*1832 xofiller!SHFILL1_RVT!x179080y201880
*1833 xofiller!SHFILL1_RVT!x180600y201880
*1834 xofiller!SHFILL1_RVT!x182120y201880
*1835 xofiller!SHFILL1_RVT!x183640y201880
*1836 xofiller!SHFILL1_RVT!x185160y201880
*1837 xofiller!SHFILL1_RVT!x186680y201880
*1838 xofiller!SHFILL1_RVT!x188200y201880
*1839 xofiller!SHFILL1_RVT!x189720y201880
*1840 xofiller!SHFILL1_RVT!x191240y201880
*1841 xofiller!SHFILL1_RVT!x192760y201880
*1842 xofiller!SHFILL1_RVT!x194280y201880
*1843 xofiller!SHFILL1_RVT!x195800y201880
*1844 xofiller!SHFILL1_RVT!x197320y201880
*1845 xofiller!SHFILL1_RVT!x198840y201880
*1846 xofiller!SHFILL1_RVT!x200360y201880
*1847 xofiller!SHFILL1_RVT!x201880y201880
*1848 xofiller!SHFILL1_RVT!x203400y201880
*1849 xofiller!SHFILL1_RVT!x204920y201880
*1850 xofiller!SHFILL1_RVT!x206440y201880
*1851 xofiller!SHFILL1_RVT!x207960y201880
*1852 xofiller!SHFILL1_RVT!x209480y201880
*1853 xofiller!SHFILL1_RVT!x211000y201880
*1854 xofiller!SHFILL1_RVT!x212520y201880
*1855 xofiller!SHFILL1_RVT!x214040y201880
*1856 xofiller!SHFILL1_RVT!x215560y201880
*1857 xofiller!SHFILL1_RVT!x217080y201880
*1858 xofiller!SHFILL1_RVT!x218600y201880
*1859 xofiller!SHFILL1_RVT!x220120y201880
*1860 xofiller!SHFILL1_RVT!x221640y201880
*1861 xofiller!SHFILL1_RVT!x223160y201880
*1862 xofiller!SHFILL1_RVT!x224680y201880
*1863 xofiller!SHFILL1_RVT!x226200y201880
*1864 xofiller!SHFILL1_RVT!x227720y201880
*1865 xofiller!SHFILL1_RVT!x229240y201880
*1866 xofiller!SHFILL1_RVT!x230760y201880
*1867 xofiller!SHFILL1_RVT!x232280y201880
*1868 xofiller!SHFILL1_RVT!x233800y201880
*1869 xofiller!SHFILL1_RVT!x235320y201880
*1870 xofiller!SHFILL1_RVT!x236840y201880
*1871 xofiller!SHFILL1_RVT!x238360y201880
*1872 xofiller!SHFILL1_RVT!x239880y201880
*1873 xofiller!SHFILL1_RVT!x241400y201880
*1874 xofiller!SHFILL1_RVT!x242920y201880
*1875 xofiller!SHFILL1_RVT!x244440y201880
*1876 xofiller!SHFILL1_RVT!x245960y201880
*1877 xofiller!SHFILL1_RVT!x247480y201880
*1878 xofiller!SHFILL1_RVT!x249000y201880
*1879 xofiller!SHFILL1_RVT!x250520y201880
*1880 xofiller!SHFILL1_RVT!x252040y201880
*1881 xofiller!SHFILL1_RVT!x253560y201880
*1882 xofiller!SHFILL1_RVT!x255080y201880
*1883 xofiller!SHFILL1_RVT!x256600y201880
*1884 xofiller!SHFILL1_RVT!x258120y201880
*1885 xofiller!SHFILL1_RVT!x259640y201880
*1886 xofiller!SHFILL1_RVT!x261160y201880
*1887 xofiller!SHFILL1_RVT!x262680y201880
*1888 xofiller!SHFILL1_RVT!x264200y201880
*1889 xofiller!SHFILL1_RVT!x265720y201880
*1890 xofiller!SHFILL1_RVT!x267240y201880
*1891 xofiller!SHFILL1_RVT!x268760y201880
*1892 xofiller!SHFILL1_RVT!x270280y201880
*1893 xofiller!SHFILL1_RVT!x271800y201880
*1894 xofiller!SHFILL1_RVT!x273320y201880
*1895 xofiller!SHFILL1_RVT!x274840y201880
*1896 xofiller!SHFILL1_RVT!x276360y201880
*1897 xofiller!SHFILL1_RVT!x277880y201880
*1898 xofiller!SHFILL1_RVT!x279400y201880
*1899 xofiller!SHFILL1_RVT!x280920y201880
*1900 xofiller!SHFILL1_RVT!x282440y201880
*1901 xofiller!SHFILL1_RVT!x283960y201880
*1902 xofiller!SHFILL1_RVT!x285480y201880
*1903 xofiller!SHFILL1_RVT!x287000y201880
*1904 xofiller!SHFILL1_RVT!x288520y201880
*1905 xofiller!SHFILL1_RVT!x290040y201880
*1906 xofiller!SHFILL1_RVT!x291560y201880
*1907 xofiller!SHFILL1_RVT!x293080y201880
*1908 xofiller!SHFILL1_RVT!x294600y201880
*1909 xofiller!SHFILL1_RVT!x296120y201880
*1910 xofiller!SHFILL1_RVT!x297640y201880
*1911 xofiller!SHFILL1_RVT!x299160y201880
*1912 xofiller!SHFILL1_RVT!x300680y201880
*1913 xofiller!SHFILL1_RVT!x302200y201880
*1914 xofiller!SHFILL1_RVT!x303720y201880
*1915 xofiller!SHFILL1_RVT!x305240y201880
*1916 xofiller!SHFILL1_RVT!x306760y201880
*1917 xofiller!SHFILL1_RVT!x308280y201880
*1918 xofiller!SHFILL1_RVT!x309800y201880
*1919 xofiller!SHFILL1_RVT!x311320y201880
*1920 xofiller!SHFILL1_RVT!x312840y201880
*1921 xofiller!SHFILL1_RVT!x314360y201880
*1922 xofiller!SHFILL1_RVT!x315880y201880
*1923 xofiller!SHFILL1_RVT!x317400y201880
*1924 xofiller!SHFILL1_RVT!x318920y201880
*1925 xofiller!SHFILL1_RVT!x320440y201880
*1926 xofiller!SHFILL1_RVT!x321960y201880
*1927 xofiller!SHFILL1_RVT!x323480y201880
*1928 xofiller!SHFILL1_RVT!x325000y201880
*1929 xofiller!SHFILL1_RVT!x326520y201880
*1930 xofiller!SHFILL1_RVT!x328040y201880
*1931 xofiller!SHFILL1_RVT!x329560y201880
*1932 xofiller!SHFILL1_RVT!x331080y201880
*1933 xofiller!SHFILL1_RVT!x332600y201880
*1934 xofiller!SHFILL1_RVT!x334120y201880
*1935 xofiller!SHFILL1_RVT!x335640y201880
*1936 xofiller!SHFILL1_RVT!x337160y201880
*1937 xofiller!SHFILL1_RVT!x338680y201880
*1938 xofiller!SHFILL1_RVT!x340200y201880
*1939 xofiller!SHFILL1_RVT!x341720y201880
*1940 xofiller!SHFILL1_RVT!x343240y201880
*1941 xofiller!SHFILL1_RVT!x344760y201880
*1942 xofiller!SHFILL1_RVT!x346280y201880
*1943 xofiller!SHFILL1_RVT!x347800y201880
*1944 xofiller!SHFILL1_RVT!x349320y201880
*1945 xofiller!SHFILL1_RVT!x350840y201880
*1946 xofiller!SHFILL1_RVT!x352360y201880
*1947 xofiller!SHFILL1_RVT!x353880y201880
*1948 xofiller!SHFILL1_RVT!x355400y201880
*1949 xofiller!SHFILL1_RVT!x356920y201880
*1950 xofiller!SHFILL1_RVT!x358440y201880
*1951 xofiller!SHFILL1_RVT!x359960y201880
*1952 xofiller!SHFILL1_RVT!x361480y201880
*1953 xofiller!SHFILL1_RVT!x363000y201880
*1954 xofiller!SHFILL1_RVT!x364520y201880
*1955 xofiller!SHFILL1_RVT!x366040y201880
*1956 xofiller!SHFILL1_RVT!x367560y201880
*1957 xofiller!SHFILL1_RVT!x369080y201880
*1958 xofiller!SHFILL1_RVT!x370600y201880
*1959 xofiller!SHFILL1_RVT!x372120y201880
*1960 xofiller!SHFILL1_RVT!x373640y201880
*1961 xofiller!SHFILL1_RVT!x375160y201880
*1962 xofiller!SHFILL1_RVT!x376680y201880
*1963 xofiller!SHFILL1_RVT!x378200y201880
*1964 xofiller!SHFILL1_RVT!x379720y201880
*1965 xofiller!SHFILL1_RVT!x381240y201880
*1966 xofiller!SHFILL1_RVT!x382760y201880
*1967 xofiller!SHFILL1_RVT!x384280y201880
*1968 xofiller!SHFILL1_RVT!x385800y201880
*1969 xofiller!SHFILL1_RVT!x387320y201880
*1970 xofiller!SHFILL1_RVT!x388840y201880
*1971 xofiller!SHFILL1_RVT!x390360y201880
*1972 xofiller!SHFILL1_RVT!x391880y201880
*1973 xofiller!SHFILL1_RVT!x393400y201880
*1974 xofiller!SHFILL1_RVT!x394920y201880
*1975 xofiller!SHFILL1_RVT!x396440y201880
*1976 xofiller!SHFILL1_RVT!x397960y201880
*1977 xofiller!SHFILL1_RVT!x399480y201880
*1978 xofiller!SHFILL1_RVT!x401000y201880
*1979 xofiller!SHFILL1_RVT!x402520y201880
*1980 xofiller!SHFILL1_RVT!x404040y201880
*1981 xofiller!SHFILL1_RVT!x405560y201880
*1982 xofiller!SHFILL1_RVT!x407080y201880
*1983 xofiller!SHFILL1_RVT!x408600y201880
*1984 xofiller!SHFILL1_RVT!x410120y201880
*1985 xofiller!SHFILL1_RVT!x411640y201880
*1986 xofiller!SHFILL1_RVT!x413160y201880
*1987 xofiller!SHFILL1_RVT!x414680y201880
*1988 xofiller!SHFILL1_RVT!x416200y201880
*1989 xofiller!SHFILL1_RVT!x417720y201880
*1990 xofiller!SHFILL1_RVT!x419240y201880
*1991 xofiller!SHFILL1_RVT!x420760y201880
*1992 xofiller!SHFILL1_RVT!x460280y201880
*1993 xofiller!SHFILL1_RVT!x461800y201880
*1994 xofiller!SHFILL1_RVT!x463320y201880
*1995 xofiller!SHFILL1_RVT!x464840y201880
*1996 xofiller!SHFILL1_RVT!x466360y201880
*1997 xofiller!SHFILL1_RVT!x467880y201880
*1998 xofiller!SHFILL1_RVT!x469400y201880
*1999 xofiller!SHFILL1_RVT!x470920y201880
*2000 xofiller!SHFILL1_RVT!x472440y201880
*2001 xofiller!SHFILL1_RVT!x473960y201880
*2002 xofiller!SHFILL1_RVT!x475480y201880
*2003 xofiller!SHFILL1_RVT!x477000y201880
*2004 xofiller!SHFILL1_RVT!x478520y201880
*2005 xofiller!SHFILL1_RVT!x480040y201880
*2006 xofiller!SHFILL1_RVT!x481560y201880
*2007 xofiller!SHFILL1_RVT!x483080y201880
*2008 xofiller!SHFILL1_RVT!x484600y201880
*2009 xofiller!SHFILL1_RVT!x486120y201880
*2010 xofiller!SHFILL1_RVT!x487640y201880
*2011 xofiller!SHFILL1_RVT!x489160y201880
*2012 xofiller!SHFILL1_RVT!x490680y201880
*2013 xofiller!SHFILL1_RVT!x492200y201880
*2014 xofiller!SHFILL1_RVT!x493720y201880
*2015 xofiller!SHFILL1_RVT!x495240y201880
*2016 xofiller!SHFILL1_RVT!x496760y201880
*2017 xofiller!SHFILL1_RVT!x498280y201880
*2018 xofiller!SHFILL1_RVT!x499800y201880
*2019 xofiller!SHFILL1_RVT!x501320y201880
*2020 xofiller!SHFILL1_RVT!x502840y201880
*2021 xofiller!SHFILL1_RVT!x504360y201880
*2022 xofiller!SHFILL1_RVT!x505880y201880
*2023 xofiller!SHFILL1_RVT!x507400y201880
*2024 xofiller!SHFILL1_RVT!x516520y201880
*2025 xofiller!SHFILL1_RVT!x518040y201880
*2026 xofiller!SHFILL1_RVT!x519560y201880
*2027 xofiller!SHFILL1_RVT!x521080y201880
*2028 xofiller!SHFILL1_RVT!x522600y201880
*2029 xofiller!SHFILL1_RVT!x524120y201880
*2030 xofiller!SHFILL1_RVT!x525640y201880
*2031 xofiller!SHFILL1_RVT!x527160y201880
*2032 xofiller!SHFILL1_RVT!x528680y201880
*2033 xofiller!SHFILL1_RVT!x530200y201880
*2034 xofiller!SHFILL1_RVT!x531720y201880
*2035 xofiller!SHFILL1_RVT!x533240y201880
*2036 xofiller!SHFILL1_RVT!x534760y201880
*2037 xofiller!SHFILL1_RVT!x536280y201880
*2038 xofiller!SHFILL1_RVT!x537800y201880
*2039 xofiller!SHFILL1_RVT!x539320y201880
*2040 xofiller!SHFILL1_RVT!x540840y201880
*2041 xofiller!SHFILL1_RVT!x542360y201880
*2042 xofiller!SHFILL1_RVT!x543880y201880
*2043 xofiller!SHFILL1_RVT!x545400y201880
*2044 xofiller!SHFILL1_RVT!x546920y201880
*2045 xofiller!SHFILL1_RVT!x548440y201880
*2046 xofiller!SHFILL1_RVT!x549960y201880
*2047 xofiller!SHFILL1_RVT!x551480y201880
*2048 xofiller!SHFILL1_RVT!x553000y201880
*2049 xofiller!SHFILL1_RVT!x554520y201880
*2050 xofiller!SHFILL1_RVT!x556040y201880
*2051 xofiller!SHFILL1_RVT!x557560y201880
*2052 xofiller!SHFILL1_RVT!x559080y201880
*2053 xofiller!SHFILL1_RVT!x560600y201880
*2054 xofiller!SHFILL1_RVT!x562120y201880
*2055 xofiller!SHFILL1_RVT!x563640y201880
*2056 xofiller!SHFILL1_RVT!x565160y201880
*2057 xofiller!SHFILL1_RVT!x566680y201880
*2058 xofiller!SHFILL1_RVT!x568200y201880
*2059 xofiller!SHFILL1_RVT!x569720y201880
*2060 xofiller!SHFILL1_RVT!x571240y201880
*2061 xofiller!SHFILL1_RVT!x572760y201880
*2062 xofiller!SHFILL1_RVT!x574280y201880
*2063 xofiller!SHFILL1_RVT!x591000y201880
*2064 xofiller!SHFILL1_RVT!x592520y201880
*2065 xofiller!SHFILL1_RVT!x594040y201880
*2066 xofiller!SHFILL1_RVT!x595560y201880
*2067 xofiller!SHFILL1_RVT!x597080y201880
*2068 xofiller!SHFILL1_RVT!x598600y201880
*2069 xofiller!SHFILL1_RVT!x600120y201880
*2070 xofiller!SHFILL1_RVT!x601640y201880
*2071 xofiller!SHFILL1_RVT!x603160y201880
*2072 xofiller!SHFILL1_RVT!x604680y201880
*2073 xofiller!SHFILL1_RVT!x648760y201880
*2074 xofiller!SHFILL1_RVT!x650280y201880
*2075 xofiller!SHFILL1_RVT!x651800y201880
*2076 xofiller!SHFILL1_RVT!x653320y201880
*2077 xofiller!SHFILL1_RVT!x654840y201880
*2078 xofiller!SHFILL1_RVT!x682200y201880
*2079 xofiller!SHFILL1_RVT!x683720y201880
*2080 xofiller!SHFILL1_RVT!x685240y201880
*2081 xofiller!SHFILL1_RVT!x686760y201880
*2082 xofiller!SHFILL1_RVT!x688280y201880
*2083 xofiller!SHFILL1_RVT!x689800y201880
*2084 xofiller!SHFILL1_RVT!x691320y201880
*2085 xofiller!SHFILL1_RVT!x692840y201880
*2086 xofiller!SHFILL1_RVT!x694360y201880
*2087 xofiller!SHFILL1_RVT!x695880y201880
*2088 xofiller!SHFILL1_RVT!x697400y201880
*2089 xofiller!SHFILL1_RVT!x698920y201880
*2090 xofiller!SHFILL1_RVT!x700440y201880
*2091 xofiller!SHFILL1_RVT!x701960y201880
*2092 xofiller!SHFILL1_RVT!x703480y201880
*2093 xofiller!SHFILL1_RVT!x705000y201880
*2094 xofiller!SHFILL1_RVT!x706520y201880
*2095 xofiller!SHFILL1_RVT!x708040y201880
*2096 xofiller!SHFILL1_RVT!x709560y201880
*2097 xofiller!SHFILL1_RVT!x711080y201880
*2098 xofiller!SHFILL1_RVT!x712600y201880
*2099 xofiller!SHFILL1_RVT!x714120y201880
*2100 xofiller!SHFILL1_RVT!x715640y201880
*2101 xofiller!SHFILL1_RVT!x717160y201880
*2102 xofiller!SHFILL1_RVT!x718680y201880
*2103 xofiller!SHFILL1_RVT!x720200y201880
*2104 xofiller!SHFILL1_RVT!x721720y201880
*2105 xofiller!SHFILL1_RVT!x723240y201880
*2106 xofiller!SHFILL1_RVT!x724760y201880
*2107 xofiller!SHFILL1_RVT!x726280y201880
*2108 xofiller!SHFILL1_RVT!x727800y201880
*2109 xofiller!SHFILL1_RVT!x729320y201880
*2110 xofiller!SHFILL1_RVT!x730840y201880
*2111 xofiller!SHFILL1_RVT!x732360y201880
*2112 xofiller!SHFILL1_RVT!x733880y201880
*2113 xofiller!SHFILL1_RVT!x735400y201880
*2114 xofiller!SHFILL1_RVT!x736920y201880
*2115 xofiller!SHFILL1_RVT!x738440y201880
*2116 xofiller!SHFILL1_RVT!x739960y201880
*2117 xofiller!SHFILL1_RVT!x741480y201880
*2118 xofiller!SHFILL1_RVT!x743000y201880
*2119 xofiller!SHFILL1_RVT!x744520y201880
*2120 xofiller!SHFILL1_RVT!x135000y218600
*2121 xofiller!SHFILL1_RVT!x136520y218600
*2122 xofiller!SHFILL1_RVT!x138040y218600
*2123 xofiller!SHFILL1_RVT!x139560y218600
*2124 xofiller!SHFILL1_RVT!x141080y218600
*2125 xofiller!SHFILL1_RVT!x142600y218600
*2126 xofiller!SHFILL1_RVT!x144120y218600
*2127 xofiller!SHFILL1_RVT!x145640y218600
*2128 xofiller!SHFILL1_RVT!x147160y218600
*2129 xofiller!SHFILL1_RVT!x148680y218600
*2130 xofiller!SHFILL1_RVT!x150200y218600
*2131 xofiller!SHFILL1_RVT!x151720y218600
*2132 xofiller!SHFILL1_RVT!x153240y218600
*2133 xofiller!SHFILL1_RVT!x154760y218600
*2134 xofiller!SHFILL1_RVT!x156280y218600
*2135 xofiller!SHFILL1_RVT!x157800y218600
*2136 xofiller!SHFILL1_RVT!x159320y218600
*2137 xofiller!SHFILL1_RVT!x160840y218600
*2138 xofiller!SHFILL1_RVT!x162360y218600
*2139 xofiller!SHFILL1_RVT!x163880y218600
*2140 xofiller!SHFILL1_RVT!x165400y218600
*2141 xofiller!SHFILL1_RVT!x166920y218600
*2142 xofiller!SHFILL1_RVT!x168440y218600
*2143 xofiller!SHFILL1_RVT!x169960y218600
*2144 xofiller!SHFILL1_RVT!x171480y218600
*2145 xofiller!SHFILL1_RVT!x173000y218600
*2146 xofiller!SHFILL1_RVT!x174520y218600
*2147 xofiller!SHFILL1_RVT!x176040y218600
*2148 xofiller!SHFILL1_RVT!x177560y218600
*2149 xofiller!SHFILL1_RVT!x179080y218600
*2150 xofiller!SHFILL1_RVT!x180600y218600
*2151 xofiller!SHFILL1_RVT!x182120y218600
*2152 xofiller!SHFILL1_RVT!x183640y218600
*2153 xofiller!SHFILL1_RVT!x185160y218600
*2154 xofiller!SHFILL1_RVT!x186680y218600
*2155 xofiller!SHFILL1_RVT!x188200y218600
*2156 xofiller!SHFILL1_RVT!x189720y218600
*2157 xofiller!SHFILL1_RVT!x191240y218600
*2158 xofiller!SHFILL1_RVT!x192760y218600
*2159 xofiller!SHFILL1_RVT!x194280y218600
*2160 xofiller!SHFILL1_RVT!x195800y218600
*2161 xofiller!SHFILL1_RVT!x197320y218600
*2162 xofiller!SHFILL1_RVT!x198840y218600
*2163 xofiller!SHFILL1_RVT!x200360y218600
*2164 xofiller!SHFILL1_RVT!x201880y218600
*2165 xofiller!SHFILL1_RVT!x203400y218600
*2166 xofiller!SHFILL1_RVT!x204920y218600
*2167 xofiller!SHFILL1_RVT!x206440y218600
*2168 xofiller!SHFILL1_RVT!x207960y218600
*2169 xofiller!SHFILL1_RVT!x209480y218600
*2170 xofiller!SHFILL1_RVT!x211000y218600
*2171 xofiller!SHFILL1_RVT!x212520y218600
*2172 xofiller!SHFILL1_RVT!x214040y218600
*2173 xofiller!SHFILL1_RVT!x215560y218600
*2174 xofiller!SHFILL1_RVT!x217080y218600
*2175 xofiller!SHFILL1_RVT!x218600y218600
*2176 xofiller!SHFILL1_RVT!x220120y218600
*2177 xofiller!SHFILL1_RVT!x221640y218600
*2178 xofiller!SHFILL1_RVT!x223160y218600
*2179 xofiller!SHFILL1_RVT!x224680y218600
*2180 xofiller!SHFILL1_RVT!x226200y218600
*2181 xofiller!SHFILL1_RVT!x236840y218600
*2182 xofiller!SHFILL1_RVT!x238360y218600
*2183 xofiller!SHFILL1_RVT!x239880y218600
*2184 xofiller!SHFILL1_RVT!x241400y218600
*2185 xofiller!SHFILL1_RVT!x242920y218600
*2186 xofiller!SHFILL1_RVT!x244440y218600
*2187 xofiller!SHFILL1_RVT!x245960y218600
*2188 xofiller!SHFILL1_RVT!x247480y218600
*2189 xofiller!SHFILL1_RVT!x249000y218600
*2190 xofiller!SHFILL1_RVT!x250520y218600
*2191 xofiller!SHFILL1_RVT!x252040y218600
*2192 xofiller!SHFILL1_RVT!x253560y218600
*2193 xofiller!SHFILL1_RVT!x297640y218600
*2194 xofiller!SHFILL1_RVT!x299160y218600
*2195 xofiller!SHFILL1_RVT!x300680y218600
*2196 xofiller!SHFILL1_RVT!x302200y218600
*2197 xofiller!SHFILL1_RVT!x303720y218600
*2198 xofiller!SHFILL1_RVT!x315880y218600
*2199 xofiller!SHFILL1_RVT!x317400y218600
*2200 xofiller!SHFILL1_RVT!x318920y218600
*2201 xofiller!SHFILL1_RVT!x320440y218600
*2202 xofiller!SHFILL1_RVT!x321960y218600
*2203 xofiller!SHFILL1_RVT!x366040y218600
*2204 xofiller!SHFILL1_RVT!x367560y218600
*2205 xofiller!SHFILL1_RVT!x369080y218600
*2206 xofiller!SHFILL1_RVT!x370600y218600
*2207 xofiller!SHFILL1_RVT!x372120y218600
*2208 xofiller!SHFILL1_RVT!x373640y218600
*2209 xofiller!SHFILL1_RVT!x375160y218600
*2210 xofiller!SHFILL1_RVT!x376680y218600
*2211 xofiller!SHFILL1_RVT!x387320y218600
*2212 xofiller!SHFILL1_RVT!x388840y218600
*2213 xofiller!SHFILL1_RVT!x390360y218600
*2214 xofiller!SHFILL1_RVT!x391880y218600
*2215 xofiller!SHFILL1_RVT!x393400y218600
*2216 xofiller!SHFILL1_RVT!x394920y218600
*2217 xofiller!SHFILL1_RVT!x396440y218600
*2218 xofiller!SHFILL1_RVT!x397960y218600
*2219 xofiller!SHFILL1_RVT!x399480y218600
*2220 xofiller!SHFILL1_RVT!x401000y218600
*2221 xofiller!SHFILL1_RVT!x402520y218600
*2222 xofiller!SHFILL1_RVT!x404040y218600
*2223 xofiller!SHFILL1_RVT!x405560y218600
*2224 xofiller!SHFILL1_RVT!x407080y218600
*2225 xofiller!SHFILL1_RVT!x408600y218600
*2226 xofiller!SHFILL1_RVT!x417720y218600
*2227 xofiller!SHFILL1_RVT!x419240y218600
*2228 xofiller!SHFILL1_RVT!x420760y218600
*2229 xofiller!SHFILL1_RVT!x422280y218600
*2230 xofiller!SHFILL1_RVT!x423800y218600
*2231 xofiller!SHFILL1_RVT!x425320y218600
*2232 xofiller!SHFILL1_RVT!x426840y218600
*2233 xofiller!SHFILL1_RVT!x428360y218600
*2234 xofiller!SHFILL1_RVT!x429880y218600
*2235 xofiller!SHFILL1_RVT!x431400y218600
*2236 xofiller!SHFILL1_RVT!x432920y218600
*2237 xofiller!SHFILL1_RVT!x434440y218600
*2238 xofiller!SHFILL1_RVT!x435960y218600
*2239 xofiller!SHFILL1_RVT!x437480y218600
*2240 xofiller!SHFILL1_RVT!x439000y218600
*2241 xofiller!SHFILL1_RVT!x440520y218600
*2242 xofiller!SHFILL1_RVT!x442040y218600
*2243 xofiller!SHFILL1_RVT!x443560y218600
*2244 xofiller!SHFILL1_RVT!x445080y218600
*2245 xofiller!SHFILL1_RVT!x446600y218600
*2246 xofiller!SHFILL1_RVT!x448120y218600
*2247 xofiller!SHFILL1_RVT!x449640y218600
*2248 xofiller!SHFILL1_RVT!x451160y218600
*2249 xofiller!SHFILL1_RVT!x452680y218600
*2250 xofiller!SHFILL1_RVT!x454200y218600
*2251 xofiller!SHFILL1_RVT!x455720y218600
*2252 xofiller!SHFILL1_RVT!x457240y218600
*2253 xofiller!SHFILL1_RVT!x458760y218600
*2254 xofiller!SHFILL1_RVT!x460280y218600
*2255 xofiller!SHFILL1_RVT!x461800y218600
*2256 xofiller!SHFILL1_RVT!x463320y218600
*2257 xofiller!SHFILL1_RVT!x464840y218600
*2258 xofiller!SHFILL1_RVT!x466360y218600
*2259 xofiller!SHFILL1_RVT!x467880y218600
*2260 xofiller!SHFILL1_RVT!x469400y218600
*2261 xofiller!SHFILL1_RVT!x470920y218600
*2262 xofiller!SHFILL1_RVT!x472440y218600
*2263 xofiller!SHFILL1_RVT!x473960y218600
*2264 xofiller!SHFILL1_RVT!x475480y218600
*2265 xofiller!SHFILL1_RVT!x477000y218600
*2266 xofiller!SHFILL1_RVT!x478520y218600
*2267 xofiller!SHFILL1_RVT!x480040y218600
*2268 xofiller!SHFILL1_RVT!x481560y218600
*2269 xofiller!SHFILL1_RVT!x483080y218600
*2270 xofiller!SHFILL1_RVT!x484600y218600
*2271 xofiller!SHFILL1_RVT!x486120y218600
*2272 xofiller!SHFILL1_RVT!x487640y218600
*2273 xofiller!SHFILL1_RVT!x489160y218600
*2274 xofiller!SHFILL1_RVT!x490680y218600
*2275 xofiller!SHFILL1_RVT!x492200y218600
*2276 xofiller!SHFILL1_RVT!x493720y218600
*2277 xofiller!SHFILL1_RVT!x495240y218600
*2278 xofiller!SHFILL1_RVT!x496760y218600
*2279 xofiller!SHFILL1_RVT!x498280y218600
*2280 xofiller!SHFILL1_RVT!x499800y218600
*2281 xofiller!SHFILL1_RVT!x501320y218600
*2282 xofiller!SHFILL1_RVT!x502840y218600
*2283 xofiller!SHFILL1_RVT!x504360y218600
*2284 xofiller!SHFILL1_RVT!x505880y218600
*2285 xofiller!SHFILL1_RVT!x507400y218600
*2286 xofiller!SHFILL1_RVT!x508920y218600
*2287 xofiller!SHFILL1_RVT!x510440y218600
*2288 xofiller!SHFILL1_RVT!x511960y218600
*2289 xofiller!SHFILL1_RVT!x513480y218600
*2290 xofiller!SHFILL1_RVT!x515000y218600
*2291 xofiller!SHFILL1_RVT!x516520y218600
*2292 xofiller!SHFILL1_RVT!x518040y218600
*2293 xofiller!SHFILL1_RVT!x519560y218600
*2294 xofiller!SHFILL1_RVT!x521080y218600
*2295 xofiller!SHFILL1_RVT!x522600y218600
*2296 xofiller!SHFILL1_RVT!x524120y218600
*2297 xofiller!SHFILL1_RVT!x525640y218600
*2298 xofiller!SHFILL1_RVT!x527160y218600
*2299 xofiller!SHFILL1_RVT!x528680y218600
*2300 xofiller!SHFILL1_RVT!x530200y218600
*2301 xofiller!SHFILL1_RVT!x531720y218600
*2302 xofiller!SHFILL1_RVT!x533240y218600
*2303 xofiller!SHFILL1_RVT!x534760y218600
*2304 xofiller!SHFILL1_RVT!x536280y218600
*2305 xofiller!SHFILL1_RVT!x537800y218600
*2306 xofiller!SHFILL1_RVT!x539320y218600
*2307 xofiller!SHFILL1_RVT!x540840y218600
*2308 xofiller!SHFILL1_RVT!x542360y218600
*2309 xofiller!SHFILL1_RVT!x543880y218600
*2310 xofiller!SHFILL1_RVT!x545400y218600
*2311 xofiller!SHFILL1_RVT!x546920y218600
*2312 xofiller!SHFILL1_RVT!x548440y218600
*2313 xofiller!SHFILL1_RVT!x549960y218600
*2314 xofiller!SHFILL1_RVT!x551480y218600
*2315 xofiller!SHFILL1_RVT!x553000y218600
*2316 xofiller!SHFILL1_RVT!x554520y218600
*2317 xofiller!SHFILL1_RVT!x556040y218600
*2318 xofiller!SHFILL1_RVT!x557560y218600
*2319 xofiller!SHFILL1_RVT!x559080y218600
*2320 xofiller!SHFILL1_RVT!x560600y218600
*2321 xofiller!SHFILL1_RVT!x562120y218600
*2322 xofiller!SHFILL1_RVT!x563640y218600
*2323 xofiller!SHFILL1_RVT!x565160y218600
*2324 xofiller!SHFILL1_RVT!x566680y218600
*2325 xofiller!SHFILL1_RVT!x568200y218600
*2326 xofiller!SHFILL1_RVT!x569720y218600
*2327 xofiller!SHFILL1_RVT!x571240y218600
*2328 xofiller!SHFILL1_RVT!x572760y218600
*2329 xofiller!SHFILL1_RVT!x574280y218600
*2330 xofiller!SHFILL1_RVT!x575800y218600
*2331 xofiller!SHFILL1_RVT!x577320y218600
*2332 xofiller!SHFILL1_RVT!x578840y218600
*2333 xofiller!SHFILL1_RVT!x580360y218600
*2334 xofiller!SHFILL1_RVT!x581880y218600
*2335 xofiller!SHFILL1_RVT!x583400y218600
*2336 xofiller!SHFILL1_RVT!x584920y218600
*2337 xofiller!SHFILL1_RVT!x586440y218600
*2338 xofiller!SHFILL1_RVT!x587960y218600
*2339 xofiller!SHFILL1_RVT!x589480y218600
*2340 xofiller!SHFILL1_RVT!x591000y218600
*2341 xofiller!SHFILL1_RVT!x592520y218600
*2342 xofiller!SHFILL1_RVT!x594040y218600
*2343 xofiller!SHFILL1_RVT!x595560y218600
*2344 xofiller!SHFILL1_RVT!x597080y218600
*2345 xofiller!SHFILL1_RVT!x598600y218600
*2346 xofiller!SHFILL1_RVT!x600120y218600
*2347 xofiller!SHFILL1_RVT!x601640y218600
*2348 xofiller!SHFILL1_RVT!x603160y218600
*2349 xofiller!SHFILL1_RVT!x604680y218600
*2350 xofiller!SHFILL1_RVT!x606200y218600
*2351 xofiller!SHFILL1_RVT!x607720y218600
*2352 xofiller!SHFILL1_RVT!x639640y218600
*2353 xofiller!SHFILL1_RVT!x641160y218600
*2354 xofiller!SHFILL1_RVT!x642680y218600
*2355 xofiller!SHFILL1_RVT!x644200y218600
*2356 xofiller!SHFILL1_RVT!x645720y218600
*2357 xofiller!SHFILL1_RVT!x647240y218600
*2358 xofiller!SHFILL1_RVT!x648760y218600
*2359 xofiller!SHFILL1_RVT!x650280y218600
*2360 xofiller!SHFILL1_RVT!x651800y218600
*2361 xofiller!SHFILL1_RVT!x653320y218600
*2362 xofiller!SHFILL1_RVT!x654840y218600
*2363 xofiller!SHFILL1_RVT!x656360y218600
*2364 xofiller!SHFILL1_RVT!x657880y218600
*2365 xofiller!SHFILL1_RVT!x659400y218600
*2366 xofiller!SHFILL1_RVT!x660920y218600
*2367 xofiller!SHFILL1_RVT!x662440y218600
*2368 xofiller!SHFILL1_RVT!x663960y218600
*2369 xofiller!SHFILL1_RVT!x665480y218600
*2370 xofiller!SHFILL1_RVT!x667000y218600
*2371 xofiller!SHFILL1_RVT!x668520y218600
*2372 xofiller!SHFILL1_RVT!x670040y218600
*2373 xofiller!SHFILL1_RVT!x671560y218600
*2374 xofiller!SHFILL1_RVT!x673080y218600
*2375 xofiller!SHFILL1_RVT!x674600y218600
*2376 xofiller!SHFILL1_RVT!x676120y218600
*2377 xofiller!SHFILL1_RVT!x677640y218600
*2378 xofiller!SHFILL1_RVT!x679160y218600
*2379 xofiller!SHFILL1_RVT!x680680y218600
*2380 xofiller!SHFILL1_RVT!x682200y218600
*2381 xofiller!SHFILL1_RVT!x683720y218600
*2382 xofiller!SHFILL1_RVT!x685240y218600
*2383 xofiller!SHFILL1_RVT!x686760y218600
*2384 xofiller!SHFILL1_RVT!x688280y218600
*2385 xofiller!SHFILL1_RVT!x689800y218600
*2386 xofiller!SHFILL1_RVT!x691320y218600
*2387 xofiller!SHFILL1_RVT!x692840y218600
*2388 xofiller!SHFILL1_RVT!x694360y218600
*2389 xofiller!SHFILL1_RVT!x695880y218600
*2390 xofiller!SHFILL1_RVT!x697400y218600
*2391 xofiller!SHFILL1_RVT!x698920y218600
*2392 xofiller!SHFILL1_RVT!x700440y218600
*2393 xofiller!SHFILL1_RVT!x701960y218600
*2394 xofiller!SHFILL1_RVT!x703480y218600
*2395 xofiller!SHFILL1_RVT!x705000y218600
*2396 xofiller!SHFILL1_RVT!x706520y218600
*2397 xofiller!SHFILL1_RVT!x708040y218600
*2398 xofiller!SHFILL1_RVT!x709560y218600
*2399 xofiller!SHFILL1_RVT!x711080y218600
*2400 xofiller!SHFILL1_RVT!x712600y218600
*2401 xofiller!SHFILL1_RVT!x714120y218600
*2402 xofiller!SHFILL1_RVT!x715640y218600
*2403 xofiller!SHFILL1_RVT!x717160y218600
*2404 xofiller!SHFILL1_RVT!x718680y218600
*2405 xofiller!SHFILL1_RVT!x720200y218600
*2406 xofiller!SHFILL1_RVT!x721720y218600
*2407 xofiller!SHFILL1_RVT!x723240y218600
*2408 xofiller!SHFILL1_RVT!x724760y218600
*2409 xofiller!SHFILL1_RVT!x726280y218600
*2410 xofiller!SHFILL1_RVT!x727800y218600
*2411 xofiller!SHFILL1_RVT!x729320y218600
*2412 xofiller!SHFILL1_RVT!x730840y218600
*2413 xofiller!SHFILL1_RVT!x732360y218600
*2414 xofiller!SHFILL1_RVT!x733880y218600
*2415 xofiller!SHFILL1_RVT!x735400y218600
*2416 xofiller!SHFILL1_RVT!x736920y218600
*2417 xofiller!SHFILL1_RVT!x738440y218600
*2418 xofiller!SHFILL1_RVT!x739960y218600
*2419 xofiller!SHFILL1_RVT!x741480y218600
*2420 xofiller!SHFILL1_RVT!x743000y218600
*2421 xofiller!SHFILL1_RVT!x744520y218600
*2422 xofiller!SHFILL1_RVT!x135000y235320
*2423 xofiller!SHFILL1_RVT!x136520y235320
*2424 xofiller!SHFILL1_RVT!x138040y235320
*2425 xofiller!SHFILL1_RVT!x139560y235320
*2426 xofiller!SHFILL1_RVT!x141080y235320
*2427 xofiller!SHFILL1_RVT!x142600y235320
*2428 xofiller!SHFILL1_RVT!x144120y235320
*2429 xofiller!SHFILL1_RVT!x145640y235320
*2430 xofiller!SHFILL1_RVT!x147160y235320
*2431 xofiller!SHFILL1_RVT!x148680y235320
*2432 xofiller!SHFILL1_RVT!x150200y235320
*2433 xofiller!SHFILL1_RVT!x151720y235320
*2434 xofiller!SHFILL1_RVT!x153240y235320
*2435 xofiller!SHFILL1_RVT!x154760y235320
*2436 xofiller!SHFILL1_RVT!x156280y235320
*2437 xofiller!SHFILL1_RVT!x157800y235320
*2438 xofiller!SHFILL1_RVT!x159320y235320
*2439 xofiller!SHFILL1_RVT!x160840y235320
*2440 xofiller!SHFILL1_RVT!x162360y235320
*2441 xofiller!SHFILL1_RVT!x163880y235320
*2442 xofiller!SHFILL1_RVT!x165400y235320
*2443 xofiller!SHFILL1_RVT!x166920y235320
*2444 xofiller!SHFILL1_RVT!x168440y235320
*2445 xofiller!SHFILL1_RVT!x169960y235320
*2446 xofiller!SHFILL1_RVT!x171480y235320
*2447 xofiller!SHFILL1_RVT!x173000y235320
*2448 xofiller!SHFILL1_RVT!x174520y235320
*2449 xofiller!SHFILL1_RVT!x176040y235320
*2450 xofiller!SHFILL1_RVT!x177560y235320
*2451 xofiller!SHFILL1_RVT!x179080y235320
*2452 xofiller!SHFILL1_RVT!x180600y235320
*2453 xofiller!SHFILL1_RVT!x182120y235320
*2454 xofiller!SHFILL1_RVT!x183640y235320
*2455 xofiller!SHFILL1_RVT!x185160y235320
*2456 xofiller!SHFILL1_RVT!x186680y235320
*2457 xofiller!SHFILL1_RVT!x188200y235320
*2458 xofiller!SHFILL1_RVT!x215560y235320
*2459 xofiller!SHFILL1_RVT!x217080y235320
*2460 xofiller!SHFILL1_RVT!x218600y235320
*2461 xofiller!SHFILL1_RVT!x220120y235320
*2462 xofiller!SHFILL1_RVT!x221640y235320
*2463 xofiller!SHFILL1_RVT!x223160y235320
*2464 xofiller!SHFILL1_RVT!x224680y235320
*2465 xofiller!SHFILL1_RVT!x226200y235320
*2466 xofiller!SHFILL1_RVT!x227720y235320
*2467 xofiller!SHFILL1_RVT!x229240y235320
*2468 xofiller!SHFILL1_RVT!x230760y235320
*2469 xofiller!SHFILL1_RVT!x232280y235320
*2470 xofiller!SHFILL1_RVT!x233800y235320
*2471 xofiller!SHFILL1_RVT!x235320y235320
*2472 xofiller!SHFILL1_RVT!x236840y235320
*2473 xofiller!SHFILL1_RVT!x238360y235320
*2474 xofiller!SHFILL1_RVT!x239880y235320
*2475 xofiller!SHFILL1_RVT!x241400y235320
*2476 xofiller!SHFILL1_RVT!x242920y235320
*2477 xofiller!SHFILL1_RVT!x244440y235320
*2478 xofiller!SHFILL1_RVT!x245960y235320
*2479 xofiller!SHFILL1_RVT!x247480y235320
*2480 xofiller!SHFILL1_RVT!x249000y235320
*2481 xofiller!SHFILL1_RVT!x250520y235320
*2482 xofiller!SHFILL1_RVT!x252040y235320
*2483 xofiller!SHFILL1_RVT!x253560y235320
*2484 xofiller!SHFILL1_RVT!x255080y235320
*2485 xofiller!SHFILL1_RVT!x256600y235320
*2486 xofiller!SHFILL1_RVT!x288520y235320
*2487 xofiller!SHFILL1_RVT!x290040y235320
*2488 xofiller!SHFILL1_RVT!x291560y235320
*2489 xofiller!SHFILL1_RVT!x293080y235320
*2490 xofiller!SHFILL1_RVT!x294600y235320
*2491 xofiller!SHFILL1_RVT!x296120y235320
*2492 xofiller!SHFILL1_RVT!x297640y235320
*2493 xofiller!SHFILL1_RVT!x299160y235320
*2494 xofiller!SHFILL1_RVT!x300680y235320
*2495 xofiller!SHFILL1_RVT!x302200y235320
*2496 xofiller!SHFILL1_RVT!x303720y235320
*2497 xofiller!SHFILL1_RVT!x305240y235320
*2498 xofiller!SHFILL1_RVT!x306760y235320
*2499 xofiller!SHFILL1_RVT!x308280y235320
*2500 xofiller!SHFILL1_RVT!x309800y235320
*2501 xofiller!SHFILL1_RVT!x311320y235320
*2502 xofiller!SHFILL1_RVT!x312840y235320
*2503 xofiller!SHFILL1_RVT!x314360y235320
*2504 xofiller!SHFILL1_RVT!x315880y235320
*2505 xofiller!SHFILL1_RVT!x317400y235320
*2506 xofiller!SHFILL1_RVT!x318920y235320
*2507 xofiller!SHFILL1_RVT!x320440y235320
*2508 xofiller!SHFILL1_RVT!x321960y235320
*2509 xofiller!SHFILL1_RVT!x323480y235320
*2510 xofiller!SHFILL1_RVT!x325000y235320
*2511 xofiller!SHFILL1_RVT!x356920y235320
*2512 xofiller!SHFILL1_RVT!x358440y235320
*2513 xofiller!SHFILL1_RVT!x359960y235320
*2514 xofiller!SHFILL1_RVT!x361480y235320
*2515 xofiller!SHFILL1_RVT!x363000y235320
*2516 xofiller!SHFILL1_RVT!x364520y235320
*2517 xofiller!SHFILL1_RVT!x366040y235320
*2518 xofiller!SHFILL1_RVT!x367560y235320
*2519 xofiller!SHFILL1_RVT!x369080y235320
*2520 xofiller!SHFILL1_RVT!x370600y235320
*2521 xofiller!SHFILL1_RVT!x372120y235320
*2522 xofiller!SHFILL1_RVT!x373640y235320
*2523 xofiller!SHFILL1_RVT!x375160y235320
*2524 xofiller!SHFILL1_RVT!x376680y235320
*2525 xofiller!SHFILL1_RVT!x378200y235320
*2526 xofiller!SHFILL1_RVT!x379720y235320
*2527 xofiller!SHFILL1_RVT!x381240y235320
*2528 xofiller!SHFILL1_RVT!x382760y235320
*2529 xofiller!SHFILL1_RVT!x384280y235320
*2530 xofiller!SHFILL1_RVT!x385800y235320
*2531 xofiller!SHFILL1_RVT!x387320y235320
*2532 xofiller!SHFILL1_RVT!x388840y235320
*2533 xofiller!SHFILL1_RVT!x390360y235320
*2534 xofiller!SHFILL1_RVT!x391880y235320
*2535 xofiller!SHFILL1_RVT!x393400y235320
*2536 xofiller!SHFILL1_RVT!x394920y235320
*2537 xofiller!SHFILL1_RVT!x439000y235320
*2538 xofiller!SHFILL1_RVT!x440520y235320
*2539 xofiller!SHFILL1_RVT!x442040y235320
*2540 xofiller!SHFILL1_RVT!x443560y235320
*2541 xofiller!SHFILL1_RVT!x487640y235320
*2542 xofiller!SHFILL1_RVT!x489160y235320
*2543 xofiller!SHFILL1_RVT!x490680y235320
*2544 xofiller!SHFILL1_RVT!x492200y235320
*2545 xofiller!SHFILL1_RVT!x493720y235320
*2546 xofiller!SHFILL1_RVT!x495240y235320
*2547 xofiller!SHFILL1_RVT!x496760y235320
*2548 xofiller!SHFILL1_RVT!x498280y235320
*2549 xofiller!SHFILL1_RVT!x499800y235320
*2550 xofiller!SHFILL1_RVT!x501320y235320
*2551 xofiller!SHFILL1_RVT!x518040y235320
*2552 xofiller!SHFILL1_RVT!x519560y235320
*2553 xofiller!SHFILL1_RVT!x521080y235320
*2554 xofiller!SHFILL1_RVT!x522600y235320
*2555 xofiller!SHFILL1_RVT!x524120y235320
*2556 xofiller!SHFILL1_RVT!x525640y235320
*2557 xofiller!SHFILL1_RVT!x527160y235320
*2558 xofiller!SHFILL1_RVT!x528680y235320
*2559 xofiller!SHFILL1_RVT!x530200y235320
*2560 xofiller!SHFILL1_RVT!x531720y235320
*2561 xofiller!SHFILL1_RVT!x595560y235320
*2562 xofiller!SHFILL1_RVT!x597080y235320
*2563 xofiller!SHFILL1_RVT!x598600y235320
*2564 xofiller!SHFILL1_RVT!x600120y235320
*2565 xofiller!SHFILL1_RVT!x601640y235320
*2566 xofiller!SHFILL1_RVT!x603160y235320
*2567 xofiller!SHFILL1_RVT!x604680y235320
*2568 xofiller!SHFILL1_RVT!x606200y235320
*2569 xofiller!SHFILL1_RVT!x607720y235320
*2570 xofiller!SHFILL1_RVT!x609240y235320
*2571 xofiller!SHFILL1_RVT!x610760y235320
*2572 xofiller!SHFILL1_RVT!x612280y235320
*2573 xofiller!SHFILL1_RVT!x613800y235320
*2574 xofiller!SHFILL1_RVT!x615320y235320
*2575 xofiller!SHFILL1_RVT!x616840y235320
*2576 xofiller!SHFILL1_RVT!x618360y235320
*2577 xofiller!SHFILL1_RVT!x619880y235320
*2578 xofiller!SHFILL1_RVT!x621400y235320
*2579 xofiller!SHFILL1_RVT!x622920y235320
*2580 xofiller!SHFILL1_RVT!x624440y235320
*2581 xofiller!SHFILL1_RVT!x625960y235320
*2582 xofiller!SHFILL1_RVT!x627480y235320
*2583 xofiller!SHFILL1_RVT!x629000y235320
*2584 xofiller!SHFILL1_RVT!x630520y235320
*2585 xofiller!SHFILL1_RVT!x632040y235320
*2586 xofiller!SHFILL1_RVT!x633560y235320
*2587 xofiller!SHFILL1_RVT!x635080y235320
*2588 xofiller!SHFILL1_RVT!x636600y235320
*2589 xofiller!SHFILL1_RVT!x638120y235320
*2590 xofiller!SHFILL1_RVT!x639640y235320
*2591 xofiller!SHFILL1_RVT!x641160y235320
*2592 xofiller!SHFILL1_RVT!x642680y235320
*2593 xofiller!SHFILL1_RVT!x644200y235320
*2594 xofiller!SHFILL1_RVT!x645720y235320
*2595 xofiller!SHFILL1_RVT!x647240y235320
*2596 xofiller!SHFILL1_RVT!x691320y235320
*2597 xofiller!SHFILL1_RVT!x692840y235320
*2598 xofiller!SHFILL1_RVT!x694360y235320
*2599 xofiller!SHFILL1_RVT!x695880y235320
*2600 xofiller!SHFILL1_RVT!x697400y235320
*2601 xofiller!SHFILL1_RVT!x698920y235320
*2602 xofiller!SHFILL1_RVT!x700440y235320
*2603 xofiller!SHFILL1_RVT!x701960y235320
*2604 xofiller!SHFILL1_RVT!x703480y235320
*2605 xofiller!SHFILL1_RVT!x705000y235320
*2606 xofiller!SHFILL1_RVT!x706520y235320
*2607 xofiller!SHFILL1_RVT!x708040y235320
*2608 xofiller!SHFILL1_RVT!x709560y235320
*2609 xofiller!SHFILL1_RVT!x711080y235320
*2610 xofiller!SHFILL1_RVT!x712600y235320
*2611 xofiller!SHFILL1_RVT!x714120y235320
*2612 xofiller!SHFILL1_RVT!x715640y235320
*2613 xofiller!SHFILL1_RVT!x717160y235320
*2614 xofiller!SHFILL1_RVT!x718680y235320
*2615 xofiller!SHFILL1_RVT!x720200y235320
*2616 xofiller!SHFILL1_RVT!x721720y235320
*2617 xofiller!SHFILL1_RVT!x723240y235320
*2618 xofiller!SHFILL1_RVT!x724760y235320
*2619 xofiller!SHFILL1_RVT!x726280y235320
*2620 xofiller!SHFILL1_RVT!x727800y235320
*2621 xofiller!SHFILL1_RVT!x729320y235320
*2622 xofiller!SHFILL1_RVT!x730840y235320
*2623 xofiller!SHFILL1_RVT!x732360y235320
*2624 xofiller!SHFILL1_RVT!x733880y235320
*2625 xofiller!SHFILL1_RVT!x735400y235320
*2626 xofiller!SHFILL1_RVT!x736920y235320
*2627 xofiller!SHFILL1_RVT!x738440y235320
*2628 xofiller!SHFILL1_RVT!x739960y235320
*2629 xofiller!SHFILL1_RVT!x741480y235320
*2630 xofiller!SHFILL1_RVT!x743000y235320
*2631 xofiller!SHFILL1_RVT!x744520y235320
*2632 xofiller!SHFILL1_RVT!x135000y252040
*2633 xofiller!SHFILL1_RVT!x136520y252040
*2634 xofiller!SHFILL1_RVT!x138040y252040
*2635 xofiller!SHFILL1_RVT!x139560y252040
*2636 xofiller!SHFILL1_RVT!x141080y252040
*2637 xofiller!SHFILL1_RVT!x142600y252040
*2638 xofiller!SHFILL1_RVT!x144120y252040
*2639 xofiller!SHFILL1_RVT!x145640y252040
*2640 xofiller!SHFILL1_RVT!x147160y252040
*2641 xofiller!SHFILL1_RVT!x148680y252040
*2642 xofiller!SHFILL1_RVT!x150200y252040
*2643 xofiller!SHFILL1_RVT!x151720y252040
*2644 xofiller!SHFILL1_RVT!x153240y252040
*2645 xofiller!SHFILL1_RVT!x154760y252040
*2646 xofiller!SHFILL1_RVT!x156280y252040
*2647 xofiller!SHFILL1_RVT!x157800y252040
*2648 xofiller!SHFILL1_RVT!x159320y252040
*2649 xofiller!SHFILL1_RVT!x160840y252040
*2650 xofiller!SHFILL1_RVT!x162360y252040
*2651 xofiller!SHFILL1_RVT!x163880y252040
*2652 xofiller!SHFILL1_RVT!x165400y252040
*2653 xofiller!SHFILL1_RVT!x166920y252040
*2654 xofiller!SHFILL1_RVT!x168440y252040
*2655 xofiller!SHFILL1_RVT!x169960y252040
*2656 xofiller!SHFILL1_RVT!x171480y252040
*2657 xofiller!SHFILL1_RVT!x173000y252040
*2658 xofiller!SHFILL1_RVT!x174520y252040
*2659 xofiller!SHFILL1_RVT!x176040y252040
*2660 xofiller!SHFILL1_RVT!x177560y252040
*2661 xofiller!SHFILL1_RVT!x179080y252040
*2662 xofiller!SHFILL1_RVT!x180600y252040
*2663 xofiller!SHFILL1_RVT!x182120y252040
*2664 xofiller!SHFILL1_RVT!x183640y252040
*2665 xofiller!SHFILL1_RVT!x185160y252040
*2666 xofiller!SHFILL1_RVT!x186680y252040
*2667 xofiller!SHFILL1_RVT!x188200y252040
*2668 xofiller!SHFILL1_RVT!x189720y252040
*2669 xofiller!SHFILL1_RVT!x191240y252040
*2670 xofiller!SHFILL1_RVT!x192760y252040
*2671 xofiller!SHFILL1_RVT!x194280y252040
*2672 xofiller!SHFILL1_RVT!x195800y252040
*2673 xofiller!SHFILL1_RVT!x197320y252040
*2674 xofiller!SHFILL1_RVT!x198840y252040
*2675 xofiller!SHFILL1_RVT!x200360y252040
*2676 xofiller!SHFILL1_RVT!x201880y252040
*2677 xofiller!SHFILL1_RVT!x203400y252040
*2678 xofiller!SHFILL1_RVT!x204920y252040
*2679 xofiller!SHFILL1_RVT!x206440y252040
*2680 xofiller!SHFILL1_RVT!x207960y252040
*2681 xofiller!SHFILL1_RVT!x209480y252040
*2682 xofiller!SHFILL1_RVT!x211000y252040
*2683 xofiller!SHFILL1_RVT!x212520y252040
*2684 xofiller!SHFILL1_RVT!x214040y252040
*2685 xofiller!SHFILL1_RVT!x215560y252040
*2686 xofiller!SHFILL1_RVT!x217080y252040
*2687 xofiller!SHFILL1_RVT!x218600y252040
*2688 xofiller!SHFILL1_RVT!x220120y252040
*2689 xofiller!SHFILL1_RVT!x221640y252040
*2690 xofiller!SHFILL1_RVT!x223160y252040
*2691 xofiller!SHFILL1_RVT!x224680y252040
*2692 xofiller!SHFILL1_RVT!x226200y252040
*2693 xofiller!SHFILL1_RVT!x227720y252040
*2694 xofiller!SHFILL1_RVT!x229240y252040
*2695 xofiller!SHFILL1_RVT!x230760y252040
*2696 xofiller!SHFILL1_RVT!x232280y252040
*2697 xofiller!SHFILL1_RVT!x276360y252040
*2698 xofiller!SHFILL1_RVT!x277880y252040
*2699 xofiller!SHFILL1_RVT!x279400y252040
*2700 xofiller!SHFILL1_RVT!x280920y252040
*2701 xofiller!SHFILL1_RVT!x282440y252040
*2702 xofiller!SHFILL1_RVT!x283960y252040
*2703 xofiller!SHFILL1_RVT!x285480y252040
*2704 xofiller!SHFILL1_RVT!x287000y252040
*2705 xofiller!SHFILL1_RVT!x288520y252040
*2706 xofiller!SHFILL1_RVT!x290040y252040
*2707 xofiller!SHFILL1_RVT!x291560y252040
*2708 xofiller!SHFILL1_RVT!x293080y252040
*2709 xofiller!SHFILL1_RVT!x337160y252040
*2710 xofiller!SHFILL1_RVT!x338680y252040
*2711 xofiller!SHFILL1_RVT!x340200y252040
*2712 xofiller!SHFILL1_RVT!x341720y252040
*2713 xofiller!SHFILL1_RVT!x343240y252040
*2714 xofiller!SHFILL1_RVT!x344760y252040
*2715 xofiller!SHFILL1_RVT!x346280y252040
*2716 xofiller!SHFILL1_RVT!x347800y252040
*2717 xofiller!SHFILL1_RVT!x349320y252040
*2718 xofiller!SHFILL1_RVT!x350840y252040
*2719 xofiller!SHFILL1_RVT!x352360y252040
*2720 xofiller!SHFILL1_RVT!x353880y252040
*2721 xofiller!SHFILL1_RVT!x355400y252040
*2722 xofiller!SHFILL1_RVT!x356920y252040
*2723 xofiller!SHFILL1_RVT!x358440y252040
*2724 xofiller!SHFILL1_RVT!x359960y252040
*2725 xofiller!SHFILL1_RVT!x361480y252040
*2726 xofiller!SHFILL1_RVT!x363000y252040
*2727 xofiller!SHFILL1_RVT!x364520y252040
*2728 xofiller!SHFILL1_RVT!x384280y252040
*2729 xofiller!SHFILL1_RVT!x385800y252040
*2730 xofiller!SHFILL1_RVT!x387320y252040
*2731 xofiller!SHFILL1_RVT!x388840y252040
*2732 xofiller!SHFILL1_RVT!x390360y252040
*2733 xofiller!SHFILL1_RVT!x391880y252040
*2734 xofiller!SHFILL1_RVT!x393400y252040
*2735 xofiller!SHFILL1_RVT!x394920y252040
*2736 xofiller!SHFILL1_RVT!x396440y252040
*2737 xofiller!SHFILL1_RVT!x397960y252040
*2738 xofiller!SHFILL1_RVT!x399480y252040
*2739 xofiller!SHFILL1_RVT!x401000y252040
*2740 xofiller!SHFILL1_RVT!x402520y252040
*2741 xofiller!SHFILL1_RVT!x404040y252040
*2742 xofiller!SHFILL1_RVT!x405560y252040
*2743 xofiller!SHFILL1_RVT!x407080y252040
*2744 xofiller!SHFILL1_RVT!x408600y252040
*2745 xofiller!SHFILL1_RVT!x410120y252040
*2746 xofiller!SHFILL1_RVT!x411640y252040
*2747 xofiller!SHFILL1_RVT!x413160y252040
*2748 xofiller!SHFILL1_RVT!x414680y252040
*2749 xofiller!SHFILL1_RVT!x416200y252040
*2750 xofiller!SHFILL1_RVT!x417720y252040
*2751 xofiller!SHFILL1_RVT!x419240y252040
*2752 xofiller!SHFILL1_RVT!x420760y252040
*2753 xofiller!SHFILL1_RVT!x422280y252040
*2754 xofiller!SHFILL1_RVT!x423800y252040
*2755 xofiller!SHFILL1_RVT!x425320y252040
*2756 xofiller!SHFILL1_RVT!x426840y252040
*2757 xofiller!SHFILL1_RVT!x428360y252040
*2758 xofiller!SHFILL1_RVT!x429880y252040
*2759 xofiller!SHFILL1_RVT!x431400y252040
*2760 xofiller!SHFILL1_RVT!x432920y252040
*2761 xofiller!SHFILL1_RVT!x434440y252040
*2762 xofiller!SHFILL1_RVT!x435960y252040
*2763 xofiller!SHFILL1_RVT!x437480y252040
*2764 xofiller!SHFILL1_RVT!x439000y252040
*2765 xofiller!SHFILL1_RVT!x440520y252040
*2766 xofiller!SHFILL1_RVT!x442040y252040
*2767 xofiller!SHFILL1_RVT!x443560y252040
*2768 xofiller!SHFILL1_RVT!x445080y252040
*2769 xofiller!SHFILL1_RVT!x446600y252040
*2770 xofiller!SHFILL1_RVT!x448120y252040
*2771 xofiller!SHFILL1_RVT!x449640y252040
*2772 xofiller!SHFILL1_RVT!x451160y252040
*2773 xofiller!SHFILL1_RVT!x452680y252040
*2774 xofiller!SHFILL1_RVT!x454200y252040
*2775 xofiller!SHFILL1_RVT!x455720y252040
*2776 xofiller!SHFILL1_RVT!x457240y252040
*2777 xofiller!SHFILL1_RVT!x458760y252040
*2778 xofiller!SHFILL1_RVT!x460280y252040
*2779 xofiller!SHFILL1_RVT!x461800y252040
*2780 xofiller!SHFILL1_RVT!x463320y252040
*2781 xofiller!SHFILL1_RVT!x464840y252040
*2782 xofiller!SHFILL1_RVT!x466360y252040
*2783 xofiller!SHFILL1_RVT!x467880y252040
*2784 xofiller!SHFILL1_RVT!x469400y252040
*2785 xofiller!SHFILL1_RVT!x470920y252040
*2786 xofiller!SHFILL1_RVT!x472440y252040
*2787 xofiller!SHFILL1_RVT!x473960y252040
*2788 xofiller!SHFILL1_RVT!x475480y252040
*2789 xofiller!SHFILL1_RVT!x477000y252040
*2790 xofiller!SHFILL1_RVT!x478520y252040
*2791 xofiller!SHFILL1_RVT!x480040y252040
*2792 xofiller!SHFILL1_RVT!x481560y252040
*2793 xofiller!SHFILL1_RVT!x483080y252040
*2794 xofiller!SHFILL1_RVT!x484600y252040
*2795 xofiller!SHFILL1_RVT!x486120y252040
*2796 xofiller!SHFILL1_RVT!x487640y252040
*2797 xofiller!SHFILL1_RVT!x489160y252040
*2798 xofiller!SHFILL1_RVT!x490680y252040
*2799 xofiller!SHFILL1_RVT!x492200y252040
*2800 xofiller!SHFILL1_RVT!x493720y252040
*2801 xofiller!SHFILL1_RVT!x495240y252040
*2802 xofiller!SHFILL1_RVT!x496760y252040
*2803 xofiller!SHFILL1_RVT!x498280y252040
*2804 xofiller!SHFILL1_RVT!x499800y252040
*2805 xofiller!SHFILL1_RVT!x513480y252040
*2806 xofiller!SHFILL1_RVT!x515000y252040
*2807 xofiller!SHFILL1_RVT!x516520y252040
*2808 xofiller!SHFILL1_RVT!x518040y252040
*2809 xofiller!SHFILL1_RVT!x519560y252040
*2810 xofiller!SHFILL1_RVT!x521080y252040
*2811 xofiller!SHFILL1_RVT!x522600y252040
*2812 xofiller!SHFILL1_RVT!x524120y252040
*2813 xofiller!SHFILL1_RVT!x525640y252040
*2814 xofiller!SHFILL1_RVT!x527160y252040
*2815 xofiller!SHFILL1_RVT!x528680y252040
*2816 xofiller!SHFILL1_RVT!x530200y252040
*2817 xofiller!SHFILL1_RVT!x531720y252040
*2818 xofiller!SHFILL1_RVT!x533240y252040
*2819 xofiller!SHFILL1_RVT!x534760y252040
*2820 xofiller!SHFILL1_RVT!x536280y252040
*2821 xofiller!SHFILL1_RVT!x537800y252040
*2822 xofiller!SHFILL1_RVT!x539320y252040
*2823 xofiller!SHFILL1_RVT!x540840y252040
*2824 xofiller!SHFILL1_RVT!x542360y252040
*2825 xofiller!SHFILL1_RVT!x543880y252040
*2826 xofiller!SHFILL1_RVT!x545400y252040
*2827 xofiller!SHFILL1_RVT!x546920y252040
*2828 xofiller!SHFILL1_RVT!x563640y252040
*2829 xofiller!SHFILL1_RVT!x565160y252040
*2830 xofiller!SHFILL1_RVT!x566680y252040
*2831 xofiller!SHFILL1_RVT!x568200y252040
*2832 xofiller!SHFILL1_RVT!x569720y252040
*2833 xofiller!SHFILL1_RVT!x571240y252040
*2834 xofiller!SHFILL1_RVT!x572760y252040
*2835 xofiller!SHFILL1_RVT!x574280y252040
*2836 xofiller!SHFILL1_RVT!x575800y252040
*2837 xofiller!SHFILL1_RVT!x577320y252040
*2838 xofiller!SHFILL1_RVT!x578840y252040
*2839 xofiller!SHFILL1_RVT!x580360y252040
*2840 xofiller!SHFILL1_RVT!x581880y252040
*2841 xofiller!SHFILL1_RVT!x583400y252040
*2842 xofiller!SHFILL1_RVT!x584920y252040
*2843 xofiller!SHFILL1_RVT!x586440y252040
*2844 xofiller!SHFILL1_RVT!x587960y252040
*2845 xofiller!SHFILL1_RVT!x625960y252040
*2846 xofiller!SHFILL1_RVT!x639640y252040
*2847 xofiller!SHFILL1_RVT!x641160y252040
*2848 xofiller!SHFILL1_RVT!x642680y252040
*2849 xofiller!SHFILL1_RVT!x644200y252040
*2850 xofiller!SHFILL1_RVT!x645720y252040
*2851 xofiller!SHFILL1_RVT!x647240y252040
*2852 xofiller!SHFILL1_RVT!x648760y252040
*2853 xofiller!SHFILL1_RVT!x650280y252040
*2854 xofiller!SHFILL1_RVT!x697400y252040
*2855 xofiller!SHFILL1_RVT!x698920y252040
*2856 xofiller!SHFILL1_RVT!x700440y252040
*2857 xofiller!SHFILL1_RVT!x701960y252040
*2858 xofiller!SHFILL1_RVT!x703480y252040
*2859 xofiller!SHFILL1_RVT!x705000y252040
*2860 xofiller!SHFILL1_RVT!x706520y252040
*2861 xofiller!SHFILL1_RVT!x708040y252040
*2862 xofiller!SHFILL1_RVT!x709560y252040
*2863 xofiller!SHFILL1_RVT!x711080y252040
*2864 xofiller!SHFILL1_RVT!x712600y252040
*2865 xofiller!SHFILL1_RVT!x714120y252040
*2866 xofiller!SHFILL1_RVT!x715640y252040
*2867 xofiller!SHFILL1_RVT!x717160y252040
*2868 xofiller!SHFILL1_RVT!x718680y252040
*2869 xofiller!SHFILL1_RVT!x720200y252040
*2870 xofiller!SHFILL1_RVT!x721720y252040
*2871 xofiller!SHFILL1_RVT!x723240y252040
*2872 xofiller!SHFILL1_RVT!x724760y252040
*2873 xofiller!SHFILL1_RVT!x726280y252040
*2874 xofiller!SHFILL1_RVT!x727800y252040
*2875 xofiller!SHFILL1_RVT!x729320y252040
*2876 xofiller!SHFILL1_RVT!x730840y252040
*2877 xofiller!SHFILL1_RVT!x732360y252040
*2878 xofiller!SHFILL1_RVT!x733880y252040
*2879 xofiller!SHFILL1_RVT!x735400y252040
*2880 xofiller!SHFILL1_RVT!x736920y252040
*2881 xofiller!SHFILL1_RVT!x738440y252040
*2882 xofiller!SHFILL1_RVT!x739960y252040
*2883 xofiller!SHFILL1_RVT!x741480y252040
*2884 xofiller!SHFILL1_RVT!x743000y252040
*2885 xofiller!SHFILL1_RVT!x744520y252040
*2886 xofiller!SHFILL1_RVT!x135000y268760
*2887 xofiller!SHFILL1_RVT!x136520y268760
*2888 xofiller!SHFILL1_RVT!x138040y268760
*2889 xofiller!SHFILL1_RVT!x139560y268760
*2890 xofiller!SHFILL1_RVT!x141080y268760
*2891 xofiller!SHFILL1_RVT!x142600y268760
*2892 xofiller!SHFILL1_RVT!x144120y268760
*2893 xofiller!SHFILL1_RVT!x145640y268760
*2894 xofiller!SHFILL1_RVT!x147160y268760
*2895 xofiller!SHFILL1_RVT!x148680y268760
*2896 xofiller!SHFILL1_RVT!x150200y268760
*2897 xofiller!SHFILL1_RVT!x151720y268760
*2898 xofiller!SHFILL1_RVT!x153240y268760
*2899 xofiller!SHFILL1_RVT!x154760y268760
*2900 xofiller!SHFILL1_RVT!x156280y268760
*2901 xofiller!SHFILL1_RVT!x157800y268760
*2902 xofiller!SHFILL1_RVT!x159320y268760
*2903 xofiller!SHFILL1_RVT!x160840y268760
*2904 xofiller!SHFILL1_RVT!x162360y268760
*2905 xofiller!SHFILL1_RVT!x163880y268760
*2906 xofiller!SHFILL1_RVT!x165400y268760
*2907 xofiller!SHFILL1_RVT!x166920y268760
*2908 xofiller!SHFILL1_RVT!x168440y268760
*2909 xofiller!SHFILL1_RVT!x169960y268760
*2910 xofiller!SHFILL1_RVT!x171480y268760
*2911 xofiller!SHFILL1_RVT!x173000y268760
*2912 xofiller!SHFILL1_RVT!x174520y268760
*2913 xofiller!SHFILL1_RVT!x176040y268760
*2914 xofiller!SHFILL1_RVT!x177560y268760
*2915 xofiller!SHFILL1_RVT!x179080y268760
*2916 xofiller!SHFILL1_RVT!x180600y268760
*2917 xofiller!SHFILL1_RVT!x182120y268760
*2918 xofiller!SHFILL1_RVT!x183640y268760
*2919 xofiller!SHFILL1_RVT!x185160y268760
*2920 xofiller!SHFILL1_RVT!x186680y268760
*2921 xofiller!SHFILL1_RVT!x188200y268760
*2922 xofiller!SHFILL1_RVT!x189720y268760
*2923 xofiller!SHFILL1_RVT!x191240y268760
*2924 xofiller!SHFILL1_RVT!x192760y268760
*2925 xofiller!SHFILL1_RVT!x194280y268760
*2926 xofiller!SHFILL1_RVT!x195800y268760
*2927 xofiller!SHFILL1_RVT!x197320y268760
*2928 xofiller!SHFILL1_RVT!x198840y268760
*2929 xofiller!SHFILL1_RVT!x200360y268760
*2930 xofiller!SHFILL1_RVT!x201880y268760
*2931 xofiller!SHFILL1_RVT!x203400y268760
*2932 xofiller!SHFILL1_RVT!x204920y268760
*2933 xofiller!SHFILL1_RVT!x206440y268760
*2934 xofiller!SHFILL1_RVT!x207960y268760
*2935 xofiller!SHFILL1_RVT!x209480y268760
*2936 xofiller!SHFILL1_RVT!x211000y268760
*2937 xofiller!SHFILL1_RVT!x212520y268760
*2938 xofiller!SHFILL1_RVT!x214040y268760
*2939 xofiller!SHFILL1_RVT!x215560y268760
*2940 xofiller!SHFILL1_RVT!x217080y268760
*2941 xofiller!SHFILL1_RVT!x218600y268760
*2942 xofiller!SHFILL1_RVT!x220120y268760
*2943 xofiller!SHFILL1_RVT!x221640y268760
*2944 xofiller!SHFILL1_RVT!x223160y268760
*2945 xofiller!SHFILL1_RVT!x224680y268760
*2946 xofiller!SHFILL1_RVT!x226200y268760
*2947 xofiller!SHFILL1_RVT!x227720y268760
*2948 xofiller!SHFILL1_RVT!x229240y268760
*2949 xofiller!SHFILL1_RVT!x230760y268760
*2950 xofiller!SHFILL1_RVT!x232280y268760
*2951 xofiller!SHFILL1_RVT!x233800y268760
*2952 xofiller!SHFILL1_RVT!x235320y268760
*2953 xofiller!SHFILL1_RVT!x249000y268760
*2954 xofiller!SHFILL1_RVT!x250520y268760
*2955 xofiller!SHFILL1_RVT!x252040y268760
*2956 xofiller!SHFILL1_RVT!x253560y268760
*2957 xofiller!SHFILL1_RVT!x255080y268760
*2958 xofiller!SHFILL1_RVT!x256600y268760
*2959 xofiller!SHFILL1_RVT!x258120y268760
*2960 xofiller!SHFILL1_RVT!x259640y268760
*2961 xofiller!SHFILL1_RVT!x261160y268760
*2962 xofiller!SHFILL1_RVT!x262680y268760
*2963 xofiller!SHFILL1_RVT!x264200y268760
*2964 xofiller!SHFILL1_RVT!x265720y268760
*2965 xofiller!SHFILL1_RVT!x267240y268760
*2966 xofiller!SHFILL1_RVT!x268760y268760
*2967 xofiller!SHFILL1_RVT!x270280y268760
*2968 xofiller!SHFILL1_RVT!x271800y268760
*2969 xofiller!SHFILL1_RVT!x273320y268760
*2970 xofiller!SHFILL1_RVT!x274840y268760
*2971 xofiller!SHFILL1_RVT!x276360y268760
*2972 xofiller!SHFILL1_RVT!x277880y268760
*2973 xofiller!SHFILL1_RVT!x279400y268760
*2974 xofiller!SHFILL1_RVT!x280920y268760
*2975 xofiller!SHFILL1_RVT!x282440y268760
*2976 xofiller!SHFILL1_RVT!x283960y268760
*2977 xofiller!SHFILL1_RVT!x285480y268760
*2978 xofiller!SHFILL1_RVT!x287000y268760
*2979 xofiller!SHFILL1_RVT!x288520y268760
*2980 xofiller!SHFILL1_RVT!x290040y268760
*2981 xofiller!SHFILL1_RVT!x291560y268760
*2982 xofiller!SHFILL1_RVT!x293080y268760
*2983 xofiller!SHFILL1_RVT!x294600y268760
*2984 xofiller!SHFILL1_RVT!x296120y268760
*2985 xofiller!SHFILL1_RVT!x297640y268760
*2986 xofiller!SHFILL1_RVT!x347800y268760
*2987 xofiller!SHFILL1_RVT!x349320y268760
*2988 xofiller!SHFILL1_RVT!x350840y268760
*2989 xofiller!SHFILL1_RVT!x352360y268760
*2990 xofiller!SHFILL1_RVT!x353880y268760
*2991 xofiller!SHFILL1_RVT!x355400y268760
*2992 xofiller!SHFILL1_RVT!x356920y268760
*2993 xofiller!SHFILL1_RVT!x358440y268760
*2994 xofiller!SHFILL1_RVT!x359960y268760
*2995 xofiller!SHFILL1_RVT!x361480y268760
*2996 xofiller!SHFILL1_RVT!x363000y268760
*2997 xofiller!SHFILL1_RVT!x364520y268760
*2998 xofiller!SHFILL1_RVT!x366040y268760
*2999 xofiller!SHFILL1_RVT!x367560y268760
*3000 xofiller!SHFILL1_RVT!x369080y268760
*3001 xofiller!SHFILL1_RVT!x370600y268760
*3002 xofiller!SHFILL1_RVT!x372120y268760
*3003 xofiller!SHFILL1_RVT!x373640y268760
*3004 xofiller!SHFILL1_RVT!x375160y268760
*3005 xofiller!SHFILL1_RVT!x376680y268760
*3006 xofiller!SHFILL1_RVT!x378200y268760
*3007 xofiller!SHFILL1_RVT!x394920y268760
*3008 xofiller!SHFILL1_RVT!x396440y268760
*3009 xofiller!SHFILL1_RVT!x397960y268760
*3010 xofiller!SHFILL1_RVT!x399480y268760
*3011 xofiller!SHFILL1_RVT!x401000y268760
*3012 xofiller!SHFILL1_RVT!x402520y268760
*3013 xofiller!SHFILL1_RVT!x404040y268760
*3014 xofiller!SHFILL1_RVT!x405560y268760
*3015 xofiller!SHFILL1_RVT!x407080y268760
*3016 xofiller!SHFILL1_RVT!x408600y268760
*3017 xofiller!SHFILL1_RVT!x410120y268760
*3018 xofiller!SHFILL1_RVT!x411640y268760
*3019 xofiller!SHFILL1_RVT!x413160y268760
*3020 xofiller!SHFILL1_RVT!x414680y268760
*3021 xofiller!SHFILL1_RVT!x416200y268760
*3022 xofiller!SHFILL1_RVT!x417720y268760
*3023 xofiller!SHFILL1_RVT!x419240y268760
*3024 xofiller!SHFILL1_RVT!x420760y268760
*3025 xofiller!SHFILL1_RVT!x422280y268760
*3026 xofiller!SHFILL1_RVT!x423800y268760
*3027 xofiller!SHFILL1_RVT!x425320y268760
*3028 xofiller!SHFILL1_RVT!x426840y268760
*3029 xofiller!SHFILL1_RVT!x428360y268760
*3030 xofiller!SHFILL1_RVT!x429880y268760
*3031 xofiller!SHFILL1_RVT!x431400y268760
*3032 xofiller!SHFILL1_RVT!x432920y268760
*3033 xofiller!SHFILL1_RVT!x434440y268760
*3034 xofiller!SHFILL1_RVT!x435960y268760
*3035 xofiller!SHFILL1_RVT!x437480y268760
*3036 xofiller!SHFILL1_RVT!x439000y268760
*3037 xofiller!SHFILL1_RVT!x440520y268760
*3038 xofiller!SHFILL1_RVT!x442040y268760
*3039 xofiller!SHFILL1_RVT!x443560y268760
*3040 xofiller!SHFILL1_RVT!x445080y268760
*3041 xofiller!SHFILL1_RVT!x446600y268760
*3042 xofiller!SHFILL1_RVT!x448120y268760
*3043 xofiller!SHFILL1_RVT!x449640y268760
*3044 xofiller!SHFILL1_RVT!x451160y268760
*3045 xofiller!SHFILL1_RVT!x452680y268760
*3046 xofiller!SHFILL1_RVT!x480040y268760
*3047 xofiller!SHFILL1_RVT!x481560y268760
*3048 xofiller!SHFILL1_RVT!x483080y268760
*3049 xofiller!SHFILL1_RVT!x484600y268760
*3050 xofiller!SHFILL1_RVT!x486120y268760
*3051 xofiller!SHFILL1_RVT!x487640y268760
*3052 xofiller!SHFILL1_RVT!x489160y268760
*3053 xofiller!SHFILL1_RVT!x490680y268760
*3054 xofiller!SHFILL1_RVT!x492200y268760
*3055 xofiller!SHFILL1_RVT!x493720y268760
*3056 xofiller!SHFILL1_RVT!x495240y268760
*3057 xofiller!SHFILL1_RVT!x496760y268760
*3058 xofiller!SHFILL1_RVT!x498280y268760
*3059 xofiller!SHFILL1_RVT!x499800y268760
*3060 xofiller!SHFILL1_RVT!x501320y268760
*3061 xofiller!SHFILL1_RVT!x502840y268760
*3062 xofiller!SHFILL1_RVT!x516520y268760
*3063 xofiller!SHFILL1_RVT!x518040y268760
*3064 xofiller!SHFILL1_RVT!x519560y268760
*3065 xofiller!SHFILL1_RVT!x521080y268760
*3066 xofiller!SHFILL1_RVT!x522600y268760
*3067 xofiller!SHFILL1_RVT!x524120y268760
*3068 xofiller!SHFILL1_RVT!x525640y268760
*3069 xofiller!SHFILL1_RVT!x527160y268760
*3070 xofiller!SHFILL1_RVT!x528680y268760
*3071 xofiller!SHFILL1_RVT!x530200y268760
*3072 xofiller!SHFILL1_RVT!x531720y268760
*3073 xofiller!SHFILL1_RVT!x533240y268760
*3074 xofiller!SHFILL1_RVT!x534760y268760
*3075 xofiller!SHFILL1_RVT!x536280y268760
*3076 xofiller!SHFILL1_RVT!x537800y268760
*3077 xofiller!SHFILL1_RVT!x539320y268760
*3078 xofiller!SHFILL1_RVT!x540840y268760
*3079 xofiller!SHFILL1_RVT!x542360y268760
*3080 xofiller!SHFILL1_RVT!x543880y268760
*3081 xofiller!SHFILL1_RVT!x545400y268760
*3082 xofiller!SHFILL1_RVT!x546920y268760
*3083 xofiller!SHFILL1_RVT!x548440y268760
*3084 xofiller!SHFILL1_RVT!x549960y268760
*3085 xofiller!SHFILL1_RVT!x551480y268760
*3086 xofiller!SHFILL1_RVT!x553000y268760
*3087 xofiller!SHFILL1_RVT!x554520y268760
*3088 xofiller!SHFILL1_RVT!x556040y268760
*3089 xofiller!SHFILL1_RVT!x557560y268760
*3090 xofiller!SHFILL1_RVT!x559080y268760
*3091 xofiller!SHFILL1_RVT!x560600y268760
*3092 xofiller!SHFILL1_RVT!x562120y268760
*3093 xofiller!SHFILL1_RVT!x563640y268760
*3094 xofiller!SHFILL1_RVT!x565160y268760
*3095 xofiller!SHFILL1_RVT!x566680y268760
*3096 xofiller!SHFILL1_RVT!x568200y268760
*3097 xofiller!SHFILL1_RVT!x569720y268760
*3098 xofiller!SHFILL1_RVT!x571240y268760
*3099 xofiller!SHFILL1_RVT!x572760y268760
*3100 xofiller!SHFILL1_RVT!x574280y268760
*3101 xofiller!SHFILL1_RVT!x575800y268760
*3102 xofiller!SHFILL1_RVT!x577320y268760
*3103 xofiller!SHFILL1_RVT!x578840y268760
*3104 xofiller!SHFILL1_RVT!x580360y268760
*3105 xofiller!SHFILL1_RVT!x581880y268760
*3106 xofiller!SHFILL1_RVT!x583400y268760
*3107 xofiller!SHFILL1_RVT!x584920y268760
*3108 xofiller!SHFILL1_RVT!x586440y268760
*3109 xofiller!SHFILL1_RVT!x587960y268760
*3110 xofiller!SHFILL1_RVT!x589480y268760
*3111 xofiller!SHFILL1_RVT!x591000y268760
*3112 xofiller!SHFILL1_RVT!x592520y268760
*3113 xofiller!SHFILL1_RVT!x594040y268760
*3114 xofiller!SHFILL1_RVT!x595560y268760
*3115 xofiller!SHFILL1_RVT!x597080y268760
*3116 xofiller!SHFILL1_RVT!x598600y268760
*3117 xofiller!SHFILL1_RVT!x600120y268760
*3118 xofiller!SHFILL1_RVT!x601640y268760
*3119 xofiller!SHFILL1_RVT!x603160y268760
*3120 xofiller!SHFILL1_RVT!x604680y268760
*3121 xofiller!SHFILL1_RVT!x606200y268760
*3122 xofiller!SHFILL1_RVT!x607720y268760
*3123 xofiller!SHFILL1_RVT!x609240y268760
*3124 xofiller!SHFILL1_RVT!x610760y268760
*3125 xofiller!SHFILL1_RVT!x612280y268760
*3126 xofiller!SHFILL1_RVT!x613800y268760
*3127 xofiller!SHFILL1_RVT!x615320y268760
*3128 xofiller!SHFILL1_RVT!x616840y268760
*3129 xofiller!SHFILL1_RVT!x618360y268760
*3130 xofiller!SHFILL1_RVT!x619880y268760
*3131 xofiller!SHFILL1_RVT!x621400y268760
*3132 xofiller!SHFILL1_RVT!x622920y268760
*3133 xofiller!SHFILL1_RVT!x624440y268760
*3134 xofiller!SHFILL1_RVT!x625960y268760
*3135 xofiller!SHFILL1_RVT!x627480y268760
*3136 xofiller!SHFILL1_RVT!x629000y268760
*3137 xofiller!SHFILL1_RVT!x630520y268760
*3138 xofiller!SHFILL1_RVT!x632040y268760
*3139 xofiller!SHFILL1_RVT!x633560y268760
*3140 xofiller!SHFILL1_RVT!x635080y268760
*3141 xofiller!SHFILL1_RVT!x636600y268760
*3142 xofiller!SHFILL1_RVT!x638120y268760
*3143 xofiller!SHFILL1_RVT!x639640y268760
*3144 xofiller!SHFILL1_RVT!x641160y268760
*3145 xofiller!SHFILL1_RVT!x642680y268760
*3146 xofiller!SHFILL1_RVT!x644200y268760
*3147 xofiller!SHFILL1_RVT!x645720y268760
*3148 xofiller!SHFILL1_RVT!x647240y268760
*3149 xofiller!SHFILL1_RVT!x648760y268760
*3150 xofiller!SHFILL1_RVT!x650280y268760
*3151 xofiller!SHFILL1_RVT!x651800y268760
*3152 xofiller!SHFILL1_RVT!x653320y268760
*3153 xofiller!SHFILL1_RVT!x654840y268760
*3154 xofiller!SHFILL1_RVT!x656360y268760
*3155 xofiller!SHFILL1_RVT!x657880y268760
*3156 xofiller!SHFILL1_RVT!x659400y268760
*3157 xofiller!SHFILL1_RVT!x660920y268760
*3158 xofiller!SHFILL1_RVT!x662440y268760
*3159 xofiller!SHFILL1_RVT!x663960y268760
*3160 xofiller!SHFILL1_RVT!x665480y268760
*3161 xofiller!SHFILL1_RVT!x667000y268760
*3162 xofiller!SHFILL1_RVT!x668520y268760
*3163 xofiller!SHFILL1_RVT!x670040y268760
*3164 xofiller!SHFILL1_RVT!x671560y268760
*3165 xofiller!SHFILL1_RVT!x673080y268760
*3166 xofiller!SHFILL1_RVT!x674600y268760
*3167 xofiller!SHFILL1_RVT!x676120y268760
*3168 xofiller!SHFILL1_RVT!x677640y268760
*3169 xofiller!SHFILL1_RVT!x679160y268760
*3170 xofiller!SHFILL1_RVT!x680680y268760
*3171 xofiller!SHFILL1_RVT!x682200y268760
*3172 xofiller!SHFILL1_RVT!x683720y268760
*3173 xofiller!SHFILL1_RVT!x685240y268760
*3174 xofiller!SHFILL1_RVT!x686760y268760
*3175 xofiller!SHFILL1_RVT!x688280y268760
*3176 xofiller!SHFILL1_RVT!x689800y268760
*3177 xofiller!SHFILL1_RVT!x691320y268760
*3178 xofiller!SHFILL1_RVT!x692840y268760
*3179 xofiller!SHFILL1_RVT!x694360y268760
*3180 xofiller!SHFILL1_RVT!x695880y268760
*3181 xofiller!SHFILL1_RVT!x697400y268760
*3182 xofiller!SHFILL1_RVT!x698920y268760
*3183 xofiller!SHFILL1_RVT!x700440y268760
*3184 xofiller!SHFILL1_RVT!x701960y268760
*3185 xofiller!SHFILL1_RVT!x703480y268760
*3186 xofiller!SHFILL1_RVT!x705000y268760
*3187 xofiller!SHFILL1_RVT!x706520y268760
*3188 xofiller!SHFILL1_RVT!x708040y268760
*3189 xofiller!SHFILL1_RVT!x709560y268760
*3190 xofiller!SHFILL1_RVT!x711080y268760
*3191 xofiller!SHFILL1_RVT!x712600y268760
*3192 xofiller!SHFILL1_RVT!x714120y268760
*3193 xofiller!SHFILL1_RVT!x715640y268760
*3194 xofiller!SHFILL1_RVT!x717160y268760
*3195 xofiller!SHFILL1_RVT!x718680y268760
*3196 xofiller!SHFILL1_RVT!x720200y268760
*3197 xofiller!SHFILL1_RVT!x721720y268760
*3198 xofiller!SHFILL1_RVT!x723240y268760
*3199 xofiller!SHFILL1_RVT!x724760y268760
*3200 xofiller!SHFILL1_RVT!x726280y268760
*3201 xofiller!SHFILL1_RVT!x727800y268760
*3202 xofiller!SHFILL1_RVT!x729320y268760
*3203 xofiller!SHFILL1_RVT!x730840y268760
*3204 xofiller!SHFILL1_RVT!x732360y268760
*3205 xofiller!SHFILL1_RVT!x733880y268760
*3206 xofiller!SHFILL1_RVT!x735400y268760
*3207 xofiller!SHFILL1_RVT!x736920y268760
*3208 xofiller!SHFILL1_RVT!x738440y268760
*3209 xofiller!SHFILL1_RVT!x739960y268760
*3210 xofiller!SHFILL1_RVT!x741480y268760
*3211 xofiller!SHFILL1_RVT!x743000y268760
*3212 xofiller!SHFILL1_RVT!x744520y268760
*3213 xofiller!SHFILL1_RVT!x135000y285480
*3214 xofiller!SHFILL1_RVT!x136520y285480
*3215 xofiller!SHFILL1_RVT!x138040y285480
*3216 xofiller!SHFILL1_RVT!x139560y285480
*3217 xofiller!SHFILL1_RVT!x141080y285480
*3218 xofiller!SHFILL1_RVT!x142600y285480
*3219 xofiller!SHFILL1_RVT!x144120y285480
*3220 xofiller!SHFILL1_RVT!x145640y285480
*3221 xofiller!SHFILL1_RVT!x147160y285480
*3222 xofiller!SHFILL1_RVT!x148680y285480
*3223 xofiller!SHFILL1_RVT!x150200y285480
*3224 xofiller!SHFILL1_RVT!x151720y285480
*3225 xofiller!SHFILL1_RVT!x153240y285480
*3226 xofiller!SHFILL1_RVT!x154760y285480
*3227 xofiller!SHFILL1_RVT!x156280y285480
*3228 xofiller!SHFILL1_RVT!x157800y285480
*3229 xofiller!SHFILL1_RVT!x159320y285480
*3230 xofiller!SHFILL1_RVT!x160840y285480
*3231 xofiller!SHFILL1_RVT!x162360y285480
*3232 xofiller!SHFILL1_RVT!x163880y285480
*3233 xofiller!SHFILL1_RVT!x165400y285480
*3234 xofiller!SHFILL1_RVT!x166920y285480
*3235 xofiller!SHFILL1_RVT!x168440y285480
*3236 xofiller!SHFILL1_RVT!x169960y285480
*3237 xofiller!SHFILL1_RVT!x171480y285480
*3238 xofiller!SHFILL1_RVT!x173000y285480
*3239 xofiller!SHFILL1_RVT!x174520y285480
*3240 xofiller!SHFILL1_RVT!x176040y285480
*3241 xofiller!SHFILL1_RVT!x177560y285480
*3242 xofiller!SHFILL1_RVT!x179080y285480
*3243 xofiller!SHFILL1_RVT!x180600y285480
*3244 xofiller!SHFILL1_RVT!x182120y285480
*3245 xofiller!SHFILL1_RVT!x183640y285480
*3246 xofiller!SHFILL1_RVT!x185160y285480
*3247 xofiller!SHFILL1_RVT!x186680y285480
*3248 xofiller!SHFILL1_RVT!x188200y285480
*3249 xofiller!SHFILL1_RVT!x189720y285480
*3250 xofiller!SHFILL1_RVT!x191240y285480
*3251 xofiller!SHFILL1_RVT!x192760y285480
*3252 xofiller!SHFILL1_RVT!x194280y285480
*3253 xofiller!SHFILL1_RVT!x195800y285480
*3254 xofiller!SHFILL1_RVT!x197320y285480
*3255 xofiller!SHFILL1_RVT!x198840y285480
*3256 xofiller!SHFILL1_RVT!x200360y285480
*3257 xofiller!SHFILL1_RVT!x201880y285480
*3258 xofiller!SHFILL1_RVT!x203400y285480
*3259 xofiller!SHFILL1_RVT!x204920y285480
*3260 xofiller!SHFILL1_RVT!x206440y285480
*3261 xofiller!SHFILL1_RVT!x207960y285480
*3262 xofiller!SHFILL1_RVT!x209480y285480
*3263 xofiller!SHFILL1_RVT!x211000y285480
*3264 xofiller!SHFILL1_RVT!x212520y285480
*3265 xofiller!SHFILL1_RVT!x214040y285480
*3266 xofiller!SHFILL1_RVT!x215560y285480
*3267 xofiller!SHFILL1_RVT!x217080y285480
*3268 xofiller!SHFILL1_RVT!x218600y285480
*3269 xofiller!SHFILL1_RVT!x220120y285480
*3270 xofiller!SHFILL1_RVT!x221640y285480
*3271 xofiller!SHFILL1_RVT!x223160y285480
*3272 xofiller!SHFILL1_RVT!x224680y285480
*3273 xofiller!SHFILL1_RVT!x226200y285480
*3274 xofiller!SHFILL1_RVT!x270280y285480
*3275 xofiller!SHFILL1_RVT!x271800y285480
*3276 xofiller!SHFILL1_RVT!x273320y285480
*3277 xofiller!SHFILL1_RVT!x274840y285480
*3278 xofiller!SHFILL1_RVT!x276360y285480
*3279 xofiller!SHFILL1_RVT!x277880y285480
*3280 xofiller!SHFILL1_RVT!x279400y285480
*3281 xofiller!SHFILL1_RVT!x280920y285480
*3282 xofiller!SHFILL1_RVT!x282440y285480
*3283 xofiller!SHFILL1_RVT!x283960y285480
*3284 xofiller!SHFILL1_RVT!x285480y285480
*3285 xofiller!SHFILL1_RVT!x287000y285480
*3286 xofiller!SHFILL1_RVT!x288520y285480
*3287 xofiller!SHFILL1_RVT!x290040y285480
*3288 xofiller!SHFILL1_RVT!x291560y285480
*3289 xofiller!SHFILL1_RVT!x293080y285480
*3290 xofiller!SHFILL1_RVT!x294600y285480
*3291 xofiller!SHFILL1_RVT!x296120y285480
*3292 xofiller!SHFILL1_RVT!x297640y285480
*3293 xofiller!SHFILL1_RVT!x299160y285480
*3294 xofiller!SHFILL1_RVT!x300680y285480
*3295 xofiller!SHFILL1_RVT!x302200y285480
*3296 xofiller!SHFILL1_RVT!x303720y285480
*3297 xofiller!SHFILL1_RVT!x305240y285480
*3298 xofiller!SHFILL1_RVT!x306760y285480
*3299 xofiller!SHFILL1_RVT!x308280y285480
*3300 xofiller!SHFILL1_RVT!x309800y285480
*3301 xofiller!SHFILL1_RVT!x311320y285480
*3302 xofiller!SHFILL1_RVT!x312840y285480
*3303 xofiller!SHFILL1_RVT!x326520y285480
*3304 xofiller!SHFILL1_RVT!x328040y285480
*3305 xofiller!SHFILL1_RVT!x329560y285480
*3306 xofiller!SHFILL1_RVT!x331080y285480
*3307 xofiller!SHFILL1_RVT!x332600y285480
*3308 xofiller!SHFILL1_RVT!x334120y285480
*3309 xofiller!SHFILL1_RVT!x335640y285480
*3310 xofiller!SHFILL1_RVT!x337160y285480
*3311 xofiller!SHFILL1_RVT!x338680y285480
*3312 xofiller!SHFILL1_RVT!x340200y285480
*3313 xofiller!SHFILL1_RVT!x341720y285480
*3314 xofiller!SHFILL1_RVT!x343240y285480
*3315 xofiller!SHFILL1_RVT!x344760y285480
*3316 xofiller!SHFILL1_RVT!x346280y285480
*3317 xofiller!SHFILL1_RVT!x347800y285480
*3318 xofiller!SHFILL1_RVT!x349320y285480
*3319 xofiller!SHFILL1_RVT!x350840y285480
*3320 xofiller!SHFILL1_RVT!x352360y285480
*3321 xofiller!SHFILL1_RVT!x353880y285480
*3322 xofiller!SHFILL1_RVT!x355400y285480
*3323 xofiller!SHFILL1_RVT!x356920y285480
*3324 xofiller!SHFILL1_RVT!x358440y285480
*3325 xofiller!SHFILL1_RVT!x359960y285480
*3326 xofiller!SHFILL1_RVT!x361480y285480
*3327 xofiller!SHFILL1_RVT!x363000y285480
*3328 xofiller!SHFILL1_RVT!x364520y285480
*3329 xofiller!SHFILL1_RVT!x366040y285480
*3330 xofiller!SHFILL1_RVT!x367560y285480
*3331 xofiller!SHFILL1_RVT!x369080y285480
*3332 xofiller!SHFILL1_RVT!x370600y285480
*3333 xofiller!SHFILL1_RVT!x372120y285480
*3334 xofiller!SHFILL1_RVT!x373640y285480
*3335 xofiller!SHFILL1_RVT!x375160y285480
*3336 xofiller!SHFILL1_RVT!x376680y285480
*3337 xofiller!SHFILL1_RVT!x378200y285480
*3338 xofiller!SHFILL1_RVT!x379720y285480
*3339 xofiller!SHFILL1_RVT!x381240y285480
*3340 xofiller!SHFILL1_RVT!x382760y285480
*3341 xofiller!SHFILL1_RVT!x384280y285480
*3342 xofiller!SHFILL1_RVT!x393400y285480
*3343 xofiller!SHFILL1_RVT!x394920y285480
*3344 xofiller!SHFILL1_RVT!x396440y285480
*3345 xofiller!SHFILL1_RVT!x397960y285480
*3346 xofiller!SHFILL1_RVT!x399480y285480
*3347 xofiller!SHFILL1_RVT!x401000y285480
*3348 xofiller!SHFILL1_RVT!x402520y285480
*3349 xofiller!SHFILL1_RVT!x404040y285480
*3350 xofiller!SHFILL1_RVT!x405560y285480
*3351 xofiller!SHFILL1_RVT!x407080y285480
*3352 xofiller!SHFILL1_RVT!x408600y285480
*3353 xofiller!SHFILL1_RVT!x410120y285480
*3354 xofiller!SHFILL1_RVT!x411640y285480
*3355 xofiller!SHFILL1_RVT!x413160y285480
*3356 xofiller!SHFILL1_RVT!x414680y285480
*3357 xofiller!SHFILL1_RVT!x416200y285480
*3358 xofiller!SHFILL1_RVT!x417720y285480
*3359 xofiller!SHFILL1_RVT!x419240y285480
*3360 xofiller!SHFILL1_RVT!x420760y285480
*3361 xofiller!SHFILL1_RVT!x422280y285480
*3362 xofiller!SHFILL1_RVT!x423800y285480
*3363 xofiller!SHFILL1_RVT!x425320y285480
*3364 xofiller!SHFILL1_RVT!x426840y285480
*3365 xofiller!SHFILL1_RVT!x428360y285480
*3366 xofiller!SHFILL1_RVT!x429880y285480
*3367 xofiller!SHFILL1_RVT!x431400y285480
*3368 xofiller!SHFILL1_RVT!x432920y285480
*3369 xofiller!SHFILL1_RVT!x434440y285480
*3370 xofiller!SHFILL1_RVT!x435960y285480
*3371 xofiller!SHFILL1_RVT!x437480y285480
*3372 xofiller!SHFILL1_RVT!x439000y285480
*3373 xofiller!SHFILL1_RVT!x455720y285480
*3374 xofiller!SHFILL1_RVT!x457240y285480
*3375 xofiller!SHFILL1_RVT!x458760y285480
*3376 xofiller!SHFILL1_RVT!x460280y285480
*3377 xofiller!SHFILL1_RVT!x461800y285480
*3378 xofiller!SHFILL1_RVT!x463320y285480
*3379 xofiller!SHFILL1_RVT!x464840y285480
*3380 xofiller!SHFILL1_RVT!x466360y285480
*3381 xofiller!SHFILL1_RVT!x467880y285480
*3382 xofiller!SHFILL1_RVT!x469400y285480
*3383 xofiller!SHFILL1_RVT!x483080y285480
*3384 xofiller!SHFILL1_RVT!x484600y285480
*3385 xofiller!SHFILL1_RVT!x486120y285480
*3386 xofiller!SHFILL1_RVT!x487640y285480
*3387 xofiller!SHFILL1_RVT!x489160y285480
*3388 xofiller!SHFILL1_RVT!x490680y285480
*3389 xofiller!SHFILL1_RVT!x492200y285480
*3390 xofiller!SHFILL1_RVT!x493720y285480
*3391 xofiller!SHFILL1_RVT!x495240y285480
*3392 xofiller!SHFILL1_RVT!x496760y285480
*3393 xofiller!SHFILL1_RVT!x498280y285480
*3394 xofiller!SHFILL1_RVT!x499800y285480
*3395 xofiller!SHFILL1_RVT!x501320y285480
*3396 xofiller!SHFILL1_RVT!x502840y285480
*3397 xofiller!SHFILL1_RVT!x504360y285480
*3398 xofiller!SHFILL1_RVT!x505880y285480
*3399 xofiller!SHFILL1_RVT!x507400y285480
*3400 xofiller!SHFILL1_RVT!x508920y285480
*3401 xofiller!SHFILL1_RVT!x510440y285480
*3402 xofiller!SHFILL1_RVT!x511960y285480
*3403 xofiller!SHFILL1_RVT!x528680y285480
*3404 xofiller!SHFILL1_RVT!x530200y285480
*3405 xofiller!SHFILL1_RVT!x531720y285480
*3406 xofiller!SHFILL1_RVT!x533240y285480
*3407 xofiller!SHFILL1_RVT!x534760y285480
*3408 xofiller!SHFILL1_RVT!x536280y285480
*3409 xofiller!SHFILL1_RVT!x537800y285480
*3410 xofiller!SHFILL1_RVT!x539320y285480
*3411 xofiller!SHFILL1_RVT!x540840y285480
*3412 xofiller!SHFILL1_RVT!x542360y285480
*3413 xofiller!SHFILL1_RVT!x543880y285480
*3414 xofiller!SHFILL1_RVT!x545400y285480
*3415 xofiller!SHFILL1_RVT!x546920y285480
*3416 xofiller!SHFILL1_RVT!x563640y285480
*3417 xofiller!SHFILL1_RVT!x565160y285480
*3418 xofiller!SHFILL1_RVT!x566680y285480
*3419 xofiller!SHFILL1_RVT!x568200y285480
*3420 xofiller!SHFILL1_RVT!x569720y285480
*3421 xofiller!SHFILL1_RVT!x571240y285480
*3422 xofiller!SHFILL1_RVT!x572760y285480
*3423 xofiller!SHFILL1_RVT!x574280y285480
*3424 xofiller!SHFILL1_RVT!x575800y285480
*3425 xofiller!SHFILL1_RVT!x577320y285480
*3426 xofiller!SHFILL1_RVT!x578840y285480
*3427 xofiller!SHFILL1_RVT!x580360y285480
*3428 xofiller!SHFILL1_RVT!x581880y285480
*3429 xofiller!SHFILL1_RVT!x583400y285480
*3430 xofiller!SHFILL1_RVT!x584920y285480
*3431 xofiller!SHFILL1_RVT!x586440y285480
*3432 xofiller!SHFILL1_RVT!x587960y285480
*3433 xofiller!SHFILL1_RVT!x589480y285480
*3434 xofiller!SHFILL1_RVT!x591000y285480
*3435 xofiller!SHFILL1_RVT!x592520y285480
*3436 xofiller!SHFILL1_RVT!x594040y285480
*3437 xofiller!SHFILL1_RVT!x595560y285480
*3438 xofiller!SHFILL1_RVT!x597080y285480
*3439 xofiller!SHFILL1_RVT!x598600y285480
*3440 xofiller!SHFILL1_RVT!x600120y285480
*3441 xofiller!SHFILL1_RVT!x601640y285480
*3442 xofiller!SHFILL1_RVT!x603160y285480
*3443 xofiller!SHFILL1_RVT!x604680y285480
*3444 xofiller!SHFILL1_RVT!x606200y285480
*3445 xofiller!SHFILL1_RVT!x607720y285480
*3446 xofiller!SHFILL1_RVT!x609240y285480
*3447 xofiller!SHFILL1_RVT!x610760y285480
*3448 xofiller!SHFILL1_RVT!x612280y285480
*3449 xofiller!SHFILL1_RVT!x613800y285480
*3450 xofiller!SHFILL1_RVT!x615320y285480
*3451 xofiller!SHFILL1_RVT!x616840y285480
*3452 xofiller!SHFILL1_RVT!x618360y285480
*3453 xofiller!SHFILL1_RVT!x619880y285480
*3454 xofiller!SHFILL1_RVT!x621400y285480
*3455 xofiller!SHFILL1_RVT!x622920y285480
*3456 xofiller!SHFILL1_RVT!x624440y285480
*3457 xofiller!SHFILL1_RVT!x625960y285480
*3458 xofiller!SHFILL1_RVT!x627480y285480
*3459 xofiller!SHFILL1_RVT!x629000y285480
*3460 xofiller!SHFILL1_RVT!x673080y285480
*3461 xofiller!SHFILL1_RVT!x674600y285480
*3462 xofiller!SHFILL1_RVT!x676120y285480
*3463 xofiller!SHFILL1_RVT!x677640y285480
*3464 xofiller!SHFILL1_RVT!x679160y285480
*3465 xofiller!SHFILL1_RVT!x680680y285480
*3466 xofiller!SHFILL1_RVT!x682200y285480
*3467 xofiller!SHFILL1_RVT!x683720y285480
*3468 xofiller!SHFILL1_RVT!x685240y285480
*3469 xofiller!SHFILL1_RVT!x686760y285480
*3470 xofiller!SHFILL1_RVT!x688280y285480
*3471 xofiller!SHFILL1_RVT!x689800y285480
*3472 xofiller!SHFILL1_RVT!x691320y285480
*3473 xofiller!SHFILL1_RVT!x692840y285480
*3474 xofiller!SHFILL1_RVT!x694360y285480
*3475 xofiller!SHFILL1_RVT!x695880y285480
*3476 xofiller!SHFILL1_RVT!x697400y285480
*3477 xofiller!SHFILL1_RVT!x698920y285480
*3478 xofiller!SHFILL1_RVT!x700440y285480
*3479 xofiller!SHFILL1_RVT!x701960y285480
*3480 xofiller!SHFILL1_RVT!x703480y285480
*3481 xofiller!SHFILL1_RVT!x705000y285480
*3482 xofiller!SHFILL1_RVT!x706520y285480
*3483 xofiller!SHFILL1_RVT!x708040y285480
*3484 xofiller!SHFILL1_RVT!x709560y285480
*3485 xofiller!SHFILL1_RVT!x711080y285480
*3486 xofiller!SHFILL1_RVT!x712600y285480
*3487 xofiller!SHFILL1_RVT!x714120y285480
*3488 xofiller!SHFILL1_RVT!x715640y285480
*3489 xofiller!SHFILL1_RVT!x717160y285480
*3490 xofiller!SHFILL1_RVT!x718680y285480
*3491 xofiller!SHFILL1_RVT!x720200y285480
*3492 xofiller!SHFILL1_RVT!x721720y285480
*3493 xofiller!SHFILL1_RVT!x723240y285480
*3494 xofiller!SHFILL1_RVT!x724760y285480
*3495 xofiller!SHFILL1_RVT!x726280y285480
*3496 xofiller!SHFILL1_RVT!x727800y285480
*3497 xofiller!SHFILL1_RVT!x729320y285480
*3498 xofiller!SHFILL1_RVT!x730840y285480
*3499 xofiller!SHFILL1_RVT!x732360y285480
*3500 xofiller!SHFILL1_RVT!x733880y285480
*3501 xofiller!SHFILL1_RVT!x735400y285480
*3502 xofiller!SHFILL1_RVT!x736920y285480
*3503 xofiller!SHFILL1_RVT!x738440y285480
*3504 xofiller!SHFILL1_RVT!x739960y285480
*3505 xofiller!SHFILL1_RVT!x741480y285480
*3506 xofiller!SHFILL1_RVT!x743000y285480
*3507 xofiller!SHFILL1_RVT!x744520y285480
*3508 xofiller!SHFILL1_RVT!x135000y302200
*3509 xofiller!SHFILL1_RVT!x136520y302200
*3510 xofiller!SHFILL1_RVT!x138040y302200
*3511 xofiller!SHFILL1_RVT!x139560y302200
*3512 xofiller!SHFILL1_RVT!x141080y302200
*3513 xofiller!SHFILL1_RVT!x142600y302200
*3514 xofiller!SHFILL1_RVT!x144120y302200
*3515 xofiller!SHFILL1_RVT!x145640y302200
*3516 xofiller!SHFILL1_RVT!x147160y302200
*3517 xofiller!SHFILL1_RVT!x148680y302200
*3518 xofiller!SHFILL1_RVT!x150200y302200
*3519 xofiller!SHFILL1_RVT!x151720y302200
*3520 xofiller!SHFILL1_RVT!x153240y302200
*3521 xofiller!SHFILL1_RVT!x154760y302200
*3522 xofiller!SHFILL1_RVT!x156280y302200
*3523 xofiller!SHFILL1_RVT!x157800y302200
*3524 xofiller!SHFILL1_RVT!x159320y302200
*3525 xofiller!SHFILL1_RVT!x160840y302200
*3526 xofiller!SHFILL1_RVT!x162360y302200
*3527 xofiller!SHFILL1_RVT!x163880y302200
*3528 xofiller!SHFILL1_RVT!x165400y302200
*3529 xofiller!SHFILL1_RVT!x166920y302200
*3530 xofiller!SHFILL1_RVT!x168440y302200
*3531 xofiller!SHFILL1_RVT!x169960y302200
*3532 xofiller!SHFILL1_RVT!x171480y302200
*3533 xofiller!SHFILL1_RVT!x173000y302200
*3534 xofiller!SHFILL1_RVT!x174520y302200
*3535 xofiller!SHFILL1_RVT!x176040y302200
*3536 xofiller!SHFILL1_RVT!x177560y302200
*3537 xofiller!SHFILL1_RVT!x179080y302200
*3538 xofiller!SHFILL1_RVT!x180600y302200
*3539 xofiller!SHFILL1_RVT!x182120y302200
*3540 xofiller!SHFILL1_RVT!x183640y302200
*3541 xofiller!SHFILL1_RVT!x185160y302200
*3542 xofiller!SHFILL1_RVT!x186680y302200
*3543 xofiller!SHFILL1_RVT!x188200y302200
*3544 xofiller!SHFILL1_RVT!x189720y302200
*3545 xofiller!SHFILL1_RVT!x191240y302200
*3546 xofiller!SHFILL1_RVT!x192760y302200
*3547 xofiller!SHFILL1_RVT!x194280y302200
*3548 xofiller!SHFILL1_RVT!x195800y302200
*3549 xofiller!SHFILL1_RVT!x197320y302200
*3550 xofiller!SHFILL1_RVT!x198840y302200
*3551 xofiller!SHFILL1_RVT!x200360y302200
*3552 xofiller!SHFILL1_RVT!x201880y302200
*3553 xofiller!SHFILL1_RVT!x203400y302200
*3554 xofiller!SHFILL1_RVT!x204920y302200
*3555 xofiller!SHFILL1_RVT!x206440y302200
*3556 xofiller!SHFILL1_RVT!x207960y302200
*3557 xofiller!SHFILL1_RVT!x209480y302200
*3558 xofiller!SHFILL1_RVT!x211000y302200
*3559 xofiller!SHFILL1_RVT!x212520y302200
*3560 xofiller!SHFILL1_RVT!x214040y302200
*3561 xofiller!SHFILL1_RVT!x215560y302200
*3562 xofiller!SHFILL1_RVT!x217080y302200
*3563 xofiller!SHFILL1_RVT!x218600y302200
*3564 xofiller!SHFILL1_RVT!x220120y302200
*3565 xofiller!SHFILL1_RVT!x221640y302200
*3566 xofiller!SHFILL1_RVT!x223160y302200
*3567 xofiller!SHFILL1_RVT!x224680y302200
*3568 xofiller!SHFILL1_RVT!x226200y302200
*3569 xofiller!SHFILL1_RVT!x227720y302200
*3570 xofiller!SHFILL1_RVT!x229240y302200
*3571 xofiller!SHFILL1_RVT!x230760y302200
*3572 xofiller!SHFILL1_RVT!x232280y302200
*3573 xofiller!SHFILL1_RVT!x233800y302200
*3574 xofiller!SHFILL1_RVT!x235320y302200
*3575 xofiller!SHFILL1_RVT!x236840y302200
*3576 xofiller!SHFILL1_RVT!x238360y302200
*3577 xofiller!SHFILL1_RVT!x239880y302200
*3578 xofiller!SHFILL1_RVT!x271800y302200
*3579 xofiller!SHFILL1_RVT!x273320y302200
*3580 xofiller!SHFILL1_RVT!x274840y302200
*3581 xofiller!SHFILL1_RVT!x276360y302200
*3582 xofiller!SHFILL1_RVT!x277880y302200
*3583 xofiller!SHFILL1_RVT!x279400y302200
*3584 xofiller!SHFILL1_RVT!x280920y302200
*3585 xofiller!SHFILL1_RVT!x282440y302200
*3586 xofiller!SHFILL1_RVT!x283960y302200
*3587 xofiller!SHFILL1_RVT!x285480y302200
*3588 xofiller!SHFILL1_RVT!x287000y302200
*3589 xofiller!SHFILL1_RVT!x288520y302200
*3590 xofiller!SHFILL1_RVT!x290040y302200
*3591 xofiller!SHFILL1_RVT!x291560y302200
*3592 xofiller!SHFILL1_RVT!x293080y302200
*3593 xofiller!SHFILL1_RVT!x303720y302200
*3594 xofiller!SHFILL1_RVT!x305240y302200
*3595 xofiller!SHFILL1_RVT!x306760y302200
*3596 xofiller!SHFILL1_RVT!x308280y302200
*3597 xofiller!SHFILL1_RVT!x309800y302200
*3598 xofiller!SHFILL1_RVT!x311320y302200
*3599 xofiller!SHFILL1_RVT!x312840y302200
*3600 xofiller!SHFILL1_RVT!x314360y302200
*3601 xofiller!SHFILL1_RVT!x315880y302200
*3602 xofiller!SHFILL1_RVT!x317400y302200
*3603 xofiller!SHFILL1_RVT!x318920y302200
*3604 xofiller!SHFILL1_RVT!x320440y302200
*3605 xofiller!SHFILL1_RVT!x321960y302200
*3606 xofiller!SHFILL1_RVT!x323480y302200
*3607 xofiller!SHFILL1_RVT!x325000y302200
*3608 xofiller!SHFILL1_RVT!x326520y302200
*3609 xofiller!SHFILL1_RVT!x328040y302200
*3610 xofiller!SHFILL1_RVT!x329560y302200
*3611 xofiller!SHFILL1_RVT!x331080y302200
*3612 xofiller!SHFILL1_RVT!x332600y302200
*3613 xofiller!SHFILL1_RVT!x352360y302200
*3614 xofiller!SHFILL1_RVT!x353880y302200
*3615 xofiller!SHFILL1_RVT!x355400y302200
*3616 xofiller!SHFILL1_RVT!x356920y302200
*3617 xofiller!SHFILL1_RVT!x358440y302200
*3618 xofiller!SHFILL1_RVT!x359960y302200
*3619 xofiller!SHFILL1_RVT!x361480y302200
*3620 xofiller!SHFILL1_RVT!x363000y302200
*3621 xofiller!SHFILL1_RVT!x364520y302200
*3622 xofiller!SHFILL1_RVT!x366040y302200
*3623 xofiller!SHFILL1_RVT!x367560y302200
*3624 xofiller!SHFILL1_RVT!x369080y302200
*3625 xofiller!SHFILL1_RVT!x370600y302200
*3626 xofiller!SHFILL1_RVT!x372120y302200
*3627 xofiller!SHFILL1_RVT!x373640y302200
*3628 xofiller!SHFILL1_RVT!x375160y302200
*3629 xofiller!SHFILL1_RVT!x376680y302200
*3630 xofiller!SHFILL1_RVT!x378200y302200
*3631 xofiller!SHFILL1_RVT!x379720y302200
*3632 xofiller!SHFILL1_RVT!x381240y302200
*3633 xofiller!SHFILL1_RVT!x382760y302200
*3634 xofiller!SHFILL1_RVT!x384280y302200
*3635 xofiller!SHFILL1_RVT!x385800y302200
*3636 xofiller!SHFILL1_RVT!x387320y302200
*3637 xofiller!SHFILL1_RVT!x388840y302200
*3638 xofiller!SHFILL1_RVT!x390360y302200
*3639 xofiller!SHFILL1_RVT!x391880y302200
*3640 xofiller!SHFILL1_RVT!x393400y302200
*3641 xofiller!SHFILL1_RVT!x394920y302200
*3642 xofiller!SHFILL1_RVT!x396440y302200
*3643 xofiller!SHFILL1_RVT!x397960y302200
*3644 xofiller!SHFILL1_RVT!x399480y302200
*3645 xofiller!SHFILL1_RVT!x401000y302200
*3646 xofiller!SHFILL1_RVT!x402520y302200
*3647 xofiller!SHFILL1_RVT!x404040y302200
*3648 xofiller!SHFILL1_RVT!x405560y302200
*3649 xofiller!SHFILL1_RVT!x407080y302200
*3650 xofiller!SHFILL1_RVT!x408600y302200
*3651 xofiller!SHFILL1_RVT!x410120y302200
*3652 xofiller!SHFILL1_RVT!x411640y302200
*3653 xofiller!SHFILL1_RVT!x420760y302200
*3654 xofiller!SHFILL1_RVT!x422280y302200
*3655 xofiller!SHFILL1_RVT!x423800y302200
*3656 xofiller!SHFILL1_RVT!x425320y302200
*3657 xofiller!SHFILL1_RVT!x426840y302200
*3658 xofiller!SHFILL1_RVT!x428360y302200
*3659 xofiller!SHFILL1_RVT!x429880y302200
*3660 xofiller!SHFILL1_RVT!x431400y302200
*3661 xofiller!SHFILL1_RVT!x432920y302200
*3662 xofiller!SHFILL1_RVT!x434440y302200
*3663 xofiller!SHFILL1_RVT!x435960y302200
*3664 xofiller!SHFILL1_RVT!x437480y302200
*3665 xofiller!SHFILL1_RVT!x439000y302200
*3666 xofiller!SHFILL1_RVT!x440520y302200
*3667 xofiller!SHFILL1_RVT!x442040y302200
*3668 xofiller!SHFILL1_RVT!x443560y302200
*3669 xofiller!SHFILL1_RVT!x475480y302200
*3670 xofiller!SHFILL1_RVT!x477000y302200
*3671 xofiller!SHFILL1_RVT!x478520y302200
*3672 xofiller!SHFILL1_RVT!x480040y302200
*3673 xofiller!SHFILL1_RVT!x481560y302200
*3674 xofiller!SHFILL1_RVT!x483080y302200
*3675 xofiller!SHFILL1_RVT!x484600y302200
*3676 xofiller!SHFILL1_RVT!x486120y302200
*3677 xofiller!SHFILL1_RVT!x487640y302200
*3678 xofiller!SHFILL1_RVT!x489160y302200
*3679 xofiller!SHFILL1_RVT!x490680y302200
*3680 xofiller!SHFILL1_RVT!x492200y302200
*3681 xofiller!SHFILL1_RVT!x493720y302200
*3682 xofiller!SHFILL1_RVT!x504360y302200
*3683 xofiller!SHFILL1_RVT!x505880y302200
*3684 xofiller!SHFILL1_RVT!x507400y302200
*3685 xofiller!SHFILL1_RVT!x508920y302200
*3686 xofiller!SHFILL1_RVT!x510440y302200
*3687 xofiller!SHFILL1_RVT!x511960y302200
*3688 xofiller!SHFILL1_RVT!x513480y302200
*3689 xofiller!SHFILL1_RVT!x515000y302200
*3690 xofiller!SHFILL1_RVT!x516520y302200
*3691 xofiller!SHFILL1_RVT!x525640y302200
*3692 xofiller!SHFILL1_RVT!x527160y302200
*3693 xofiller!SHFILL1_RVT!x528680y302200
*3694 xofiller!SHFILL1_RVT!x530200y302200
*3695 xofiller!SHFILL1_RVT!x531720y302200
*3696 xofiller!SHFILL1_RVT!x533240y302200
*3697 xofiller!SHFILL1_RVT!x534760y302200
*3698 xofiller!SHFILL1_RVT!x536280y302200
*3699 xofiller!SHFILL1_RVT!x537800y302200
*3700 xofiller!SHFILL1_RVT!x539320y302200
*3701 xofiller!SHFILL1_RVT!x540840y302200
*3702 xofiller!SHFILL1_RVT!x542360y302200
*3703 xofiller!SHFILL1_RVT!x543880y302200
*3704 xofiller!SHFILL1_RVT!x545400y302200
*3705 xofiller!SHFILL1_RVT!x562120y302200
*3706 xofiller!SHFILL1_RVT!x563640y302200
*3707 xofiller!SHFILL1_RVT!x565160y302200
*3708 xofiller!SHFILL1_RVT!x566680y302200
*3709 xofiller!SHFILL1_RVT!x568200y302200
*3710 xofiller!SHFILL1_RVT!x569720y302200
*3711 xofiller!SHFILL1_RVT!x571240y302200
*3712 xofiller!SHFILL1_RVT!x572760y302200
*3713 xofiller!SHFILL1_RVT!x574280y302200
*3714 xofiller!SHFILL1_RVT!x575800y302200
*3715 xofiller!SHFILL1_RVT!x577320y302200
*3716 xofiller!SHFILL1_RVT!x578840y302200
*3717 xofiller!SHFILL1_RVT!x580360y302200
*3718 xofiller!SHFILL1_RVT!x581880y302200
*3719 xofiller!SHFILL1_RVT!x583400y302200
*3720 xofiller!SHFILL1_RVT!x584920y302200
*3721 xofiller!SHFILL1_RVT!x586440y302200
*3722 xofiller!SHFILL1_RVT!x587960y302200
*3723 xofiller!SHFILL1_RVT!x589480y302200
*3724 xofiller!SHFILL1_RVT!x591000y302200
*3725 xofiller!SHFILL1_RVT!x592520y302200
*3726 xofiller!SHFILL1_RVT!x594040y302200
*3727 xofiller!SHFILL1_RVT!x595560y302200
*3728 xofiller!SHFILL1_RVT!x597080y302200
*3729 xofiller!SHFILL1_RVT!x598600y302200
*3730 xofiller!SHFILL1_RVT!x600120y302200
*3731 xofiller!SHFILL1_RVT!x601640y302200
*3732 xofiller!SHFILL1_RVT!x603160y302200
*3733 xofiller!SHFILL1_RVT!x604680y302200
*3734 xofiller!SHFILL1_RVT!x606200y302200
*3735 xofiller!SHFILL1_RVT!x607720y302200
*3736 xofiller!SHFILL1_RVT!x609240y302200
*3737 xofiller!SHFILL1_RVT!x610760y302200
*3738 xofiller!SHFILL1_RVT!x612280y302200
*3739 xofiller!SHFILL1_RVT!x613800y302200
*3740 xofiller!SHFILL1_RVT!x615320y302200
*3741 xofiller!SHFILL1_RVT!x616840y302200
*3742 xofiller!SHFILL1_RVT!x618360y302200
*3743 xofiller!SHFILL1_RVT!x619880y302200
*3744 xofiller!SHFILL1_RVT!x621400y302200
*3745 xofiller!SHFILL1_RVT!x622920y302200
*3746 xofiller!SHFILL1_RVT!x624440y302200
*3747 xofiller!SHFILL1_RVT!x625960y302200
*3748 xofiller!SHFILL1_RVT!x627480y302200
*3749 xofiller!SHFILL1_RVT!x629000y302200
*3750 xofiller!SHFILL1_RVT!x630520y302200
*3751 xofiller!SHFILL1_RVT!x632040y302200
*3752 xofiller!SHFILL1_RVT!x633560y302200
*3753 xofiller!SHFILL1_RVT!x635080y302200
*3754 xofiller!SHFILL1_RVT!x636600y302200
*3755 xofiller!SHFILL1_RVT!x638120y302200
*3756 xofiller!SHFILL1_RVT!x639640y302200
*3757 xofiller!SHFILL1_RVT!x641160y302200
*3758 xofiller!SHFILL1_RVT!x642680y302200
*3759 xofiller!SHFILL1_RVT!x644200y302200
*3760 xofiller!SHFILL1_RVT!x645720y302200
*3761 xofiller!SHFILL1_RVT!x647240y302200
*3762 xofiller!SHFILL1_RVT!x648760y302200
*3763 xofiller!SHFILL1_RVT!x650280y302200
*3764 xofiller!SHFILL1_RVT!x651800y302200
*3765 xofiller!SHFILL1_RVT!x653320y302200
*3766 xofiller!SHFILL1_RVT!x654840y302200
*3767 xofiller!SHFILL1_RVT!x656360y302200
*3768 xofiller!SHFILL1_RVT!x657880y302200
*3769 xofiller!SHFILL1_RVT!x659400y302200
*3770 xofiller!SHFILL1_RVT!x660920y302200
*3771 xofiller!SHFILL1_RVT!x662440y302200
*3772 xofiller!SHFILL1_RVT!x663960y302200
*3773 xofiller!SHFILL1_RVT!x665480y302200
*3774 xofiller!SHFILL1_RVT!x667000y302200
*3775 xofiller!SHFILL1_RVT!x668520y302200
*3776 xofiller!SHFILL1_RVT!x670040y302200
*3777 xofiller!SHFILL1_RVT!x671560y302200
*3778 xofiller!SHFILL1_RVT!x673080y302200
*3779 xofiller!SHFILL1_RVT!x674600y302200
*3780 xofiller!SHFILL1_RVT!x676120y302200
*3781 xofiller!SHFILL1_RVT!x677640y302200
*3782 xofiller!SHFILL1_RVT!x715640y302200
*3783 xofiller!SHFILL1_RVT!x717160y302200
*3784 xofiller!SHFILL1_RVT!x718680y302200
*3785 xofiller!SHFILL1_RVT!x720200y302200
*3786 xofiller!SHFILL1_RVT!x721720y302200
*3787 xofiller!SHFILL1_RVT!x723240y302200
*3788 xofiller!SHFILL1_RVT!x724760y302200
*3789 xofiller!SHFILL1_RVT!x726280y302200
*3790 xofiller!SHFILL1_RVT!x727800y302200
*3791 xofiller!SHFILL1_RVT!x729320y302200
*3792 xofiller!SHFILL1_RVT!x730840y302200
*3793 xofiller!SHFILL1_RVT!x732360y302200
*3794 xofiller!SHFILL1_RVT!x733880y302200
*3795 xofiller!SHFILL1_RVT!x735400y302200
*3796 xofiller!SHFILL1_RVT!x736920y302200
*3797 xofiller!SHFILL1_RVT!x738440y302200
*3798 xofiller!SHFILL1_RVT!x739960y302200
*3799 xofiller!SHFILL1_RVT!x741480y302200
*3800 xofiller!SHFILL1_RVT!x743000y302200
*3801 xofiller!SHFILL1_RVT!x744520y302200
*3802 xofiller!SHFILL1_RVT!x135000y318920
*3803 xofiller!SHFILL1_RVT!x136520y318920
*3804 xofiller!SHFILL1_RVT!x138040y318920
*3805 xofiller!SHFILL1_RVT!x139560y318920
*3806 xofiller!SHFILL1_RVT!x141080y318920
*3807 xofiller!SHFILL1_RVT!x142600y318920
*3808 xofiller!SHFILL1_RVT!x144120y318920
*3809 xofiller!SHFILL1_RVT!x145640y318920
*3810 xofiller!SHFILL1_RVT!x147160y318920
*3811 xofiller!SHFILL1_RVT!x148680y318920
*3812 xofiller!SHFILL1_RVT!x150200y318920
*3813 xofiller!SHFILL1_RVT!x151720y318920
*3814 xofiller!SHFILL1_RVT!x153240y318920
*3815 xofiller!SHFILL1_RVT!x154760y318920
*3816 xofiller!SHFILL1_RVT!x156280y318920
*3817 xofiller!SHFILL1_RVT!x157800y318920
*3818 xofiller!SHFILL1_RVT!x159320y318920
*3819 xofiller!SHFILL1_RVT!x160840y318920
*3820 xofiller!SHFILL1_RVT!x162360y318920
*3821 xofiller!SHFILL1_RVT!x163880y318920
*3822 xofiller!SHFILL1_RVT!x165400y318920
*3823 xofiller!SHFILL1_RVT!x166920y318920
*3824 xofiller!SHFILL1_RVT!x168440y318920
*3825 xofiller!SHFILL1_RVT!x169960y318920
*3826 xofiller!SHFILL1_RVT!x171480y318920
*3827 xofiller!SHFILL1_RVT!x173000y318920
*3828 xofiller!SHFILL1_RVT!x174520y318920
*3829 xofiller!SHFILL1_RVT!x176040y318920
*3830 xofiller!SHFILL1_RVT!x177560y318920
*3831 xofiller!SHFILL1_RVT!x179080y318920
*3832 xofiller!SHFILL1_RVT!x180600y318920
*3833 xofiller!SHFILL1_RVT!x182120y318920
*3834 xofiller!SHFILL1_RVT!x183640y318920
*3835 xofiller!SHFILL1_RVT!x185160y318920
*3836 xofiller!SHFILL1_RVT!x186680y318920
*3837 xofiller!SHFILL1_RVT!x188200y318920
*3838 xofiller!SHFILL1_RVT!x189720y318920
*3839 xofiller!SHFILL1_RVT!x191240y318920
*3840 xofiller!SHFILL1_RVT!x192760y318920
*3841 xofiller!SHFILL1_RVT!x194280y318920
*3842 xofiller!SHFILL1_RVT!x195800y318920
*3843 xofiller!SHFILL1_RVT!x197320y318920
*3844 xofiller!SHFILL1_RVT!x238360y318920
*3845 xofiller!SHFILL1_RVT!x239880y318920
*3846 xofiller!SHFILL1_RVT!x241400y318920
*3847 xofiller!SHFILL1_RVT!x242920y318920
*3848 xofiller!SHFILL1_RVT!x256600y318920
*3849 xofiller!SHFILL1_RVT!x258120y318920
*3850 xofiller!SHFILL1_RVT!x259640y318920
*3851 xofiller!SHFILL1_RVT!x261160y318920
*3852 xofiller!SHFILL1_RVT!x262680y318920
*3853 xofiller!SHFILL1_RVT!x264200y318920
*3854 xofiller!SHFILL1_RVT!x265720y318920
*3855 xofiller!SHFILL1_RVT!x267240y318920
*3856 xofiller!SHFILL1_RVT!x268760y318920
*3857 xofiller!SHFILL1_RVT!x270280y318920
*3858 xofiller!SHFILL1_RVT!x271800y318920
*3859 xofiller!SHFILL1_RVT!x273320y318920
*3860 xofiller!SHFILL1_RVT!x274840y318920
*3861 xofiller!SHFILL1_RVT!x276360y318920
*3862 xofiller!SHFILL1_RVT!x277880y318920
*3863 xofiller!SHFILL1_RVT!x279400y318920
*3864 xofiller!SHFILL1_RVT!x280920y318920
*3865 xofiller!SHFILL1_RVT!x282440y318920
*3866 xofiller!SHFILL1_RVT!x283960y318920
*3867 xofiller!SHFILL1_RVT!x285480y318920
*3868 xofiller!SHFILL1_RVT!x287000y318920
*3869 xofiller!SHFILL1_RVT!x288520y318920
*3870 xofiller!SHFILL1_RVT!x290040y318920
*3871 xofiller!SHFILL1_RVT!x291560y318920
*3872 xofiller!SHFILL1_RVT!x293080y318920
*3873 xofiller!SHFILL1_RVT!x294600y318920
*3874 xofiller!SHFILL1_RVT!x296120y318920
*3875 xofiller!SHFILL1_RVT!x297640y318920
*3876 xofiller!SHFILL1_RVT!x299160y318920
*3877 xofiller!SHFILL1_RVT!x300680y318920
*3878 xofiller!SHFILL1_RVT!x302200y318920
*3879 xofiller!SHFILL1_RVT!x303720y318920
*3880 xofiller!SHFILL1_RVT!x305240y318920
*3881 xofiller!SHFILL1_RVT!x306760y318920
*3882 xofiller!SHFILL1_RVT!x317400y318920
*3883 xofiller!SHFILL1_RVT!x318920y318920
*3884 xofiller!SHFILL1_RVT!x320440y318920
*3885 xofiller!SHFILL1_RVT!x321960y318920
*3886 xofiller!SHFILL1_RVT!x323480y318920
*3887 xofiller!SHFILL1_RVT!x325000y318920
*3888 xofiller!SHFILL1_RVT!x326520y318920
*3889 xofiller!SHFILL1_RVT!x328040y318920
*3890 xofiller!SHFILL1_RVT!x329560y318920
*3891 xofiller!SHFILL1_RVT!x331080y318920
*3892 xofiller!SHFILL1_RVT!x332600y318920
*3893 xofiller!SHFILL1_RVT!x334120y318920
*3894 xofiller!SHFILL1_RVT!x335640y318920
*3895 xofiller!SHFILL1_RVT!x349320y318920
*3896 xofiller!SHFILL1_RVT!x350840y318920
*3897 xofiller!SHFILL1_RVT!x352360y318920
*3898 xofiller!SHFILL1_RVT!x353880y318920
*3899 xofiller!SHFILL1_RVT!x355400y318920
*3900 xofiller!SHFILL1_RVT!x356920y318920
*3901 xofiller!SHFILL1_RVT!x358440y318920
*3902 xofiller!SHFILL1_RVT!x359960y318920
*3903 xofiller!SHFILL1_RVT!x361480y318920
*3904 xofiller!SHFILL1_RVT!x363000y318920
*3905 xofiller!SHFILL1_RVT!x364520y318920
*3906 xofiller!SHFILL1_RVT!x366040y318920
*3907 xofiller!SHFILL1_RVT!x367560y318920
*3908 xofiller!SHFILL1_RVT!x369080y318920
*3909 xofiller!SHFILL1_RVT!x370600y318920
*3910 xofiller!SHFILL1_RVT!x372120y318920
*3911 xofiller!SHFILL1_RVT!x373640y318920
*3912 xofiller!SHFILL1_RVT!x375160y318920
*3913 xofiller!SHFILL1_RVT!x376680y318920
*3914 xofiller!SHFILL1_RVT!x391880y318920
*3915 xofiller!SHFILL1_RVT!x393400y318920
*3916 xofiller!SHFILL1_RVT!x394920y318920
*3917 xofiller!SHFILL1_RVT!x396440y318920
*3918 xofiller!SHFILL1_RVT!x397960y318920
*3919 xofiller!SHFILL1_RVT!x399480y318920
*3920 xofiller!SHFILL1_RVT!x401000y318920
*3921 xofiller!SHFILL1_RVT!x402520y318920
*3922 xofiller!SHFILL1_RVT!x404040y318920
*3923 xofiller!SHFILL1_RVT!x405560y318920
*3924 xofiller!SHFILL1_RVT!x407080y318920
*3925 xofiller!SHFILL1_RVT!x408600y318920
*3926 xofiller!SHFILL1_RVT!x410120y318920
*3927 xofiller!SHFILL1_RVT!x411640y318920
*3928 xofiller!SHFILL1_RVT!x413160y318920
*3929 xofiller!SHFILL1_RVT!x414680y318920
*3930 xofiller!SHFILL1_RVT!x416200y318920
*3931 xofiller!SHFILL1_RVT!x432920y318920
*3932 xofiller!SHFILL1_RVT!x434440y318920
*3933 xofiller!SHFILL1_RVT!x435960y318920
*3934 xofiller!SHFILL1_RVT!x437480y318920
*3935 xofiller!SHFILL1_RVT!x439000y318920
*3936 xofiller!SHFILL1_RVT!x440520y318920
*3937 xofiller!SHFILL1_RVT!x442040y318920
*3938 xofiller!SHFILL1_RVT!x486120y318920
*3939 xofiller!SHFILL1_RVT!x487640y318920
*3940 xofiller!SHFILL1_RVT!x489160y318920
*3941 xofiller!SHFILL1_RVT!x490680y318920
*3942 xofiller!SHFILL1_RVT!x492200y318920
*3943 xofiller!SHFILL1_RVT!x493720y318920
*3944 xofiller!SHFILL1_RVT!x495240y318920
*3945 xofiller!SHFILL1_RVT!x496760y318920
*3946 xofiller!SHFILL1_RVT!x498280y318920
*3947 xofiller!SHFILL1_RVT!x499800y318920
*3948 xofiller!SHFILL1_RVT!x501320y318920
*3949 xofiller!SHFILL1_RVT!x502840y318920
*3950 xofiller!SHFILL1_RVT!x504360y318920
*3951 xofiller!SHFILL1_RVT!x505880y318920
*3952 xofiller!SHFILL1_RVT!x507400y318920
*3953 xofiller!SHFILL1_RVT!x508920y318920
*3954 xofiller!SHFILL1_RVT!x510440y318920
*3955 xofiller!SHFILL1_RVT!x511960y318920
*3956 xofiller!SHFILL1_RVT!x513480y318920
*3957 xofiller!SHFILL1_RVT!x515000y318920
*3958 xofiller!SHFILL1_RVT!x516520y318920
*3959 xofiller!SHFILL1_RVT!x518040y318920
*3960 xofiller!SHFILL1_RVT!x519560y318920
*3961 xofiller!SHFILL1_RVT!x521080y318920
*3962 xofiller!SHFILL1_RVT!x522600y318920
*3963 xofiller!SHFILL1_RVT!x524120y318920
*3964 xofiller!SHFILL1_RVT!x525640y318920
*3965 xofiller!SHFILL1_RVT!x527160y318920
*3966 xofiller!SHFILL1_RVT!x528680y318920
*3967 xofiller!SHFILL1_RVT!x530200y318920
*3968 xofiller!SHFILL1_RVT!x531720y318920
*3969 xofiller!SHFILL1_RVT!x533240y318920
*3970 xofiller!SHFILL1_RVT!x534760y318920
*3971 xofiller!SHFILL1_RVT!x536280y318920
*3972 xofiller!SHFILL1_RVT!x537800y318920
*3973 xofiller!SHFILL1_RVT!x539320y318920
*3974 xofiller!SHFILL1_RVT!x540840y318920
*3975 xofiller!SHFILL1_RVT!x542360y318920
*3976 xofiller!SHFILL1_RVT!x543880y318920
*3977 xofiller!SHFILL1_RVT!x545400y318920
*3978 xofiller!SHFILL1_RVT!x546920y318920
*3979 xofiller!SHFILL1_RVT!x548440y318920
*3980 xofiller!SHFILL1_RVT!x549960y318920
*3981 xofiller!SHFILL1_RVT!x551480y318920
*3982 xofiller!SHFILL1_RVT!x553000y318920
*3983 xofiller!SHFILL1_RVT!x554520y318920
*3984 xofiller!SHFILL1_RVT!x556040y318920
*3985 xofiller!SHFILL1_RVT!x557560y318920
*3986 xofiller!SHFILL1_RVT!x559080y318920
*3987 xofiller!SHFILL1_RVT!x560600y318920
*3988 xofiller!SHFILL1_RVT!x562120y318920
*3989 xofiller!SHFILL1_RVT!x563640y318920
*3990 xofiller!SHFILL1_RVT!x565160y318920
*3991 xofiller!SHFILL1_RVT!x566680y318920
*3992 xofiller!SHFILL1_RVT!x568200y318920
*3993 xofiller!SHFILL1_RVT!x569720y318920
*3994 xofiller!SHFILL1_RVT!x571240y318920
*3995 xofiller!SHFILL1_RVT!x572760y318920
*3996 xofiller!SHFILL1_RVT!x574280y318920
*3997 xofiller!SHFILL1_RVT!x575800y318920
*3998 xofiller!SHFILL1_RVT!x577320y318920
*3999 xofiller!SHFILL1_RVT!x578840y318920
*4000 xofiller!SHFILL1_RVT!x580360y318920
*4001 xofiller!SHFILL1_RVT!x581880y318920
*4002 xofiller!SHFILL1_RVT!x583400y318920
*4003 xofiller!SHFILL1_RVT!x584920y318920
*4004 xofiller!SHFILL1_RVT!x586440y318920
*4005 xofiller!SHFILL1_RVT!x587960y318920
*4006 xofiller!SHFILL1_RVT!x589480y318920
*4007 xofiller!SHFILL1_RVT!x591000y318920
*4008 xofiller!SHFILL1_RVT!x592520y318920
*4009 xofiller!SHFILL1_RVT!x594040y318920
*4010 xofiller!SHFILL1_RVT!x595560y318920
*4011 xofiller!SHFILL1_RVT!x597080y318920
*4012 xofiller!SHFILL1_RVT!x598600y318920
*4013 xofiller!SHFILL1_RVT!x600120y318920
*4014 xofiller!SHFILL1_RVT!x601640y318920
*4015 xofiller!SHFILL1_RVT!x603160y318920
*4016 xofiller!SHFILL1_RVT!x604680y318920
*4017 xofiller!SHFILL1_RVT!x606200y318920
*4018 xofiller!SHFILL1_RVT!x607720y318920
*4019 xofiller!SHFILL1_RVT!x609240y318920
*4020 xofiller!SHFILL1_RVT!x625960y318920
*4021 xofiller!SHFILL1_RVT!x627480y318920
*4022 xofiller!SHFILL1_RVT!x629000y318920
*4023 xofiller!SHFILL1_RVT!x630520y318920
*4024 xofiller!SHFILL1_RVT!x632040y318920
*4025 xofiller!SHFILL1_RVT!x633560y318920
*4026 xofiller!SHFILL1_RVT!x635080y318920
*4027 xofiller!SHFILL1_RVT!x636600y318920
*4028 xofiller!SHFILL1_RVT!x638120y318920
*4029 xofiller!SHFILL1_RVT!x639640y318920
*4030 xofiller!SHFILL1_RVT!x641160y318920
*4031 xofiller!SHFILL1_RVT!x642680y318920
*4032 xofiller!SHFILL1_RVT!x644200y318920
*4033 xofiller!SHFILL1_RVT!x645720y318920
*4034 xofiller!SHFILL1_RVT!x647240y318920
*4035 xofiller!SHFILL1_RVT!x648760y318920
*4036 xofiller!SHFILL1_RVT!x650280y318920
*4037 xofiller!SHFILL1_RVT!x651800y318920
*4038 xofiller!SHFILL1_RVT!x653320y318920
*4039 xofiller!SHFILL1_RVT!x654840y318920
*4040 xofiller!SHFILL1_RVT!x656360y318920
*4041 xofiller!SHFILL1_RVT!x657880y318920
*4042 xofiller!SHFILL1_RVT!x659400y318920
*4043 xofiller!SHFILL1_RVT!x660920y318920
*4044 xofiller!SHFILL1_RVT!x662440y318920
*4045 xofiller!SHFILL1_RVT!x663960y318920
*4046 xofiller!SHFILL1_RVT!x665480y318920
*4047 xofiller!SHFILL1_RVT!x667000y318920
*4048 xofiller!SHFILL1_RVT!x668520y318920
*4049 xofiller!SHFILL1_RVT!x670040y318920
*4050 xofiller!SHFILL1_RVT!x671560y318920
*4051 xofiller!SHFILL1_RVT!x673080y318920
*4052 xofiller!SHFILL1_RVT!x674600y318920
*4053 xofiller!SHFILL1_RVT!x676120y318920
*4054 xofiller!SHFILL1_RVT!x677640y318920
*4055 xofiller!SHFILL1_RVT!x679160y318920
*4056 xofiller!SHFILL1_RVT!x680680y318920
*4057 xofiller!SHFILL1_RVT!x682200y318920
*4058 xofiller!SHFILL1_RVT!x683720y318920
*4059 xofiller!SHFILL1_RVT!x685240y318920
*4060 xofiller!SHFILL1_RVT!x686760y318920
*4061 xofiller!SHFILL1_RVT!x688280y318920
*4062 xofiller!SHFILL1_RVT!x689800y318920
*4063 xofiller!SHFILL1_RVT!x691320y318920
*4064 xofiller!SHFILL1_RVT!x692840y318920
*4065 xofiller!SHFILL1_RVT!x694360y318920
*4066 xofiller!SHFILL1_RVT!x695880y318920
*4067 xofiller!SHFILL1_RVT!x697400y318920
*4068 xofiller!SHFILL1_RVT!x698920y318920
*4069 xofiller!SHFILL1_RVT!x700440y318920
*4070 xofiller!SHFILL1_RVT!x701960y318920
*4071 xofiller!SHFILL1_RVT!x703480y318920
*4072 xofiller!SHFILL1_RVT!x705000y318920
*4073 xofiller!SHFILL1_RVT!x706520y318920
*4074 xofiller!SHFILL1_RVT!x708040y318920
*4075 xofiller!SHFILL1_RVT!x709560y318920
*4076 xofiller!SHFILL1_RVT!x711080y318920
*4077 xofiller!SHFILL1_RVT!x712600y318920
*4078 xofiller!SHFILL1_RVT!x714120y318920
*4079 xofiller!SHFILL1_RVT!x715640y318920
*4080 xofiller!SHFILL1_RVT!x717160y318920
*4081 xofiller!SHFILL1_RVT!x718680y318920
*4082 xofiller!SHFILL1_RVT!x720200y318920
*4083 xofiller!SHFILL1_RVT!x721720y318920
*4084 xofiller!SHFILL1_RVT!x723240y318920
*4085 xofiller!SHFILL1_RVT!x724760y318920
*4086 xofiller!SHFILL1_RVT!x726280y318920
*4087 xofiller!SHFILL1_RVT!x727800y318920
*4088 xofiller!SHFILL1_RVT!x729320y318920
*4089 xofiller!SHFILL1_RVT!x730840y318920
*4090 xofiller!SHFILL1_RVT!x732360y318920
*4091 xofiller!SHFILL1_RVT!x733880y318920
*4092 xofiller!SHFILL1_RVT!x735400y318920
*4093 xofiller!SHFILL1_RVT!x736920y318920
*4094 xofiller!SHFILL1_RVT!x738440y318920
*4095 xofiller!SHFILL1_RVT!x739960y318920
*4096 xofiller!SHFILL1_RVT!x741480y318920
*4097 xofiller!SHFILL1_RVT!x743000y318920
*4098 xofiller!SHFILL1_RVT!x744520y318920
*4099 xofiller!SHFILL1_RVT!x135000y335640
*4100 xofiller!SHFILL1_RVT!x136520y335640
*4101 xofiller!SHFILL1_RVT!x138040y335640
*4102 xofiller!SHFILL1_RVT!x139560y335640
*4103 xofiller!SHFILL1_RVT!x141080y335640
*4104 xofiller!SHFILL1_RVT!x142600y335640
*4105 xofiller!SHFILL1_RVT!x144120y335640
*4106 xofiller!SHFILL1_RVT!x145640y335640
*4107 xofiller!SHFILL1_RVT!x147160y335640
*4108 xofiller!SHFILL1_RVT!x148680y335640
*4109 xofiller!SHFILL1_RVT!x150200y335640
*4110 xofiller!SHFILL1_RVT!x151720y335640
*4111 xofiller!SHFILL1_RVT!x153240y335640
*4112 xofiller!SHFILL1_RVT!x154760y335640
*4113 xofiller!SHFILL1_RVT!x156280y335640
*4114 xofiller!SHFILL1_RVT!x157800y335640
*4115 xofiller!SHFILL1_RVT!x159320y335640
*4116 xofiller!SHFILL1_RVT!x160840y335640
*4117 xofiller!SHFILL1_RVT!x162360y335640
*4118 xofiller!SHFILL1_RVT!x163880y335640
*4119 xofiller!SHFILL1_RVT!x165400y335640
*4120 xofiller!SHFILL1_RVT!x166920y335640
*4121 xofiller!SHFILL1_RVT!x168440y335640
*4122 xofiller!SHFILL1_RVT!x169960y335640
*4123 xofiller!SHFILL1_RVT!x171480y335640
*4124 xofiller!SHFILL1_RVT!x173000y335640
*4125 xofiller!SHFILL1_RVT!x174520y335640
*4126 xofiller!SHFILL1_RVT!x176040y335640
*4127 xofiller!SHFILL1_RVT!x177560y335640
*4128 xofiller!SHFILL1_RVT!x179080y335640
*4129 xofiller!SHFILL1_RVT!x180600y335640
*4130 xofiller!SHFILL1_RVT!x182120y335640
*4131 xofiller!SHFILL1_RVT!x183640y335640
*4132 xofiller!SHFILL1_RVT!x185160y335640
*4133 xofiller!SHFILL1_RVT!x186680y335640
*4134 xofiller!SHFILL1_RVT!x188200y335640
*4135 xofiller!SHFILL1_RVT!x189720y335640
*4136 xofiller!SHFILL1_RVT!x191240y335640
*4137 xofiller!SHFILL1_RVT!x192760y335640
*4138 xofiller!SHFILL1_RVT!x194280y335640
*4139 xofiller!SHFILL1_RVT!x195800y335640
*4140 xofiller!SHFILL1_RVT!x197320y335640
*4141 xofiller!SHFILL1_RVT!x198840y335640
*4142 xofiller!SHFILL1_RVT!x200360y335640
*4143 xofiller!SHFILL1_RVT!x201880y335640
*4144 xofiller!SHFILL1_RVT!x203400y335640
*4145 xofiller!SHFILL1_RVT!x204920y335640
*4146 xofiller!SHFILL1_RVT!x206440y335640
*4147 xofiller!SHFILL1_RVT!x207960y335640
*4148 xofiller!SHFILL1_RVT!x209480y335640
*4149 xofiller!SHFILL1_RVT!x211000y335640
*4150 xofiller!SHFILL1_RVT!x212520y335640
*4151 xofiller!SHFILL1_RVT!x214040y335640
*4152 xofiller!SHFILL1_RVT!x215560y335640
*4153 xofiller!SHFILL1_RVT!x217080y335640
*4154 xofiller!SHFILL1_RVT!x261160y335640
*4155 xofiller!SHFILL1_RVT!x262680y335640
*4156 xofiller!SHFILL1_RVT!x264200y335640
*4157 xofiller!SHFILL1_RVT!x265720y335640
*4158 xofiller!SHFILL1_RVT!x312840y335640
*4159 xofiller!SHFILL1_RVT!x314360y335640
*4160 xofiller!SHFILL1_RVT!x315880y335640
*4161 xofiller!SHFILL1_RVT!x317400y335640
*4162 xofiller!SHFILL1_RVT!x318920y335640
*4163 xofiller!SHFILL1_RVT!x320440y335640
*4164 xofiller!SHFILL1_RVT!x321960y335640
*4165 xofiller!SHFILL1_RVT!x331080y335640
*4166 xofiller!SHFILL1_RVT!x332600y335640
*4167 xofiller!SHFILL1_RVT!x334120y335640
*4168 xofiller!SHFILL1_RVT!x335640y335640
*4169 xofiller!SHFILL1_RVT!x337160y335640
*4170 xofiller!SHFILL1_RVT!x338680y335640
*4171 xofiller!SHFILL1_RVT!x340200y335640
*4172 xofiller!SHFILL1_RVT!x341720y335640
*4173 xofiller!SHFILL1_RVT!x343240y335640
*4174 xofiller!SHFILL1_RVT!x344760y335640
*4175 xofiller!SHFILL1_RVT!x346280y335640
*4176 xofiller!SHFILL1_RVT!x347800y335640
*4177 xofiller!SHFILL1_RVT!x349320y335640
*4178 xofiller!SHFILL1_RVT!x350840y335640
*4179 xofiller!SHFILL1_RVT!x352360y335640
*4180 xofiller!SHFILL1_RVT!x366040y335640
*4181 xofiller!SHFILL1_RVT!x367560y335640
*4182 xofiller!SHFILL1_RVT!x369080y335640
*4183 xofiller!SHFILL1_RVT!x370600y335640
*4184 xofiller!SHFILL1_RVT!x372120y335640
*4185 xofiller!SHFILL1_RVT!x373640y335640
*4186 xofiller!SHFILL1_RVT!x375160y335640
*4187 xofiller!SHFILL1_RVT!x376680y335640
*4188 xofiller!SHFILL1_RVT!x390360y335640
*4189 xofiller!SHFILL1_RVT!x391880y335640
*4190 xofiller!SHFILL1_RVT!x393400y335640
*4191 xofiller!SHFILL1_RVT!x394920y335640
*4192 xofiller!SHFILL1_RVT!x396440y335640
*4193 xofiller!SHFILL1_RVT!x397960y335640
*4194 xofiller!SHFILL1_RVT!x399480y335640
*4195 xofiller!SHFILL1_RVT!x401000y335640
*4196 xofiller!SHFILL1_RVT!x402520y335640
*4197 xofiller!SHFILL1_RVT!x404040y335640
*4198 xofiller!SHFILL1_RVT!x413160y335640
*4199 xofiller!SHFILL1_RVT!x414680y335640
*4200 xofiller!SHFILL1_RVT!x416200y335640
*4201 xofiller!SHFILL1_RVT!x417720y335640
*4202 xofiller!SHFILL1_RVT!x419240y335640
*4203 xofiller!SHFILL1_RVT!x420760y335640
*4204 xofiller!SHFILL1_RVT!x422280y335640
*4205 xofiller!SHFILL1_RVT!x423800y335640
*4206 xofiller!SHFILL1_RVT!x425320y335640
*4207 xofiller!SHFILL1_RVT!x426840y335640
*4208 xofiller!SHFILL1_RVT!x428360y335640
*4209 xofiller!SHFILL1_RVT!x429880y335640
*4210 xofiller!SHFILL1_RVT!x431400y335640
*4211 xofiller!SHFILL1_RVT!x432920y335640
*4212 xofiller!SHFILL1_RVT!x434440y335640
*4213 xofiller!SHFILL1_RVT!x435960y335640
*4214 xofiller!SHFILL1_RVT!x437480y335640
*4215 xofiller!SHFILL1_RVT!x439000y335640
*4216 xofiller!SHFILL1_RVT!x440520y335640
*4217 xofiller!SHFILL1_RVT!x442040y335640
*4218 xofiller!SHFILL1_RVT!x443560y335640
*4219 xofiller!SHFILL1_RVT!x452680y335640
*4220 xofiller!SHFILL1_RVT!x454200y335640
*4221 xofiller!SHFILL1_RVT!x455720y335640
*4222 xofiller!SHFILL1_RVT!x457240y335640
*4223 xofiller!SHFILL1_RVT!x458760y335640
*4224 xofiller!SHFILL1_RVT!x460280y335640
*4225 xofiller!SHFILL1_RVT!x461800y335640
*4226 xofiller!SHFILL1_RVT!x463320y335640
*4227 xofiller!SHFILL1_RVT!x464840y335640
*4228 xofiller!SHFILL1_RVT!x466360y335640
*4229 xofiller!SHFILL1_RVT!x467880y335640
*4230 xofiller!SHFILL1_RVT!x469400y335640
*4231 xofiller!SHFILL1_RVT!x470920y335640
*4232 xofiller!SHFILL1_RVT!x472440y335640
*4233 xofiller!SHFILL1_RVT!x473960y335640
*4234 xofiller!SHFILL1_RVT!x475480y335640
*4235 xofiller!SHFILL1_RVT!x477000y335640
*4236 xofiller!SHFILL1_RVT!x478520y335640
*4237 xofiller!SHFILL1_RVT!x480040y335640
*4238 xofiller!SHFILL1_RVT!x481560y335640
*4239 xofiller!SHFILL1_RVT!x483080y335640
*4240 xofiller!SHFILL1_RVT!x484600y335640
*4241 xofiller!SHFILL1_RVT!x486120y335640
*4242 xofiller!SHFILL1_RVT!x487640y335640
*4243 xofiller!SHFILL1_RVT!x489160y335640
*4244 xofiller!SHFILL1_RVT!x490680y335640
*4245 xofiller!SHFILL1_RVT!x492200y335640
*4246 xofiller!SHFILL1_RVT!x493720y335640
*4247 xofiller!SHFILL1_RVT!x504360y335640
*4248 xofiller!SHFILL1_RVT!x505880y335640
*4249 xofiller!SHFILL1_RVT!x507400y335640
*4250 xofiller!SHFILL1_RVT!x518040y335640
*4251 xofiller!SHFILL1_RVT!x519560y335640
*4252 xofiller!SHFILL1_RVT!x521080y335640
*4253 xofiller!SHFILL1_RVT!x522600y335640
*4254 xofiller!SHFILL1_RVT!x524120y335640
*4255 xofiller!SHFILL1_RVT!x525640y335640
*4256 xofiller!SHFILL1_RVT!x527160y335640
*4257 xofiller!SHFILL1_RVT!x528680y335640
*4258 xofiller!SHFILL1_RVT!x530200y335640
*4259 xofiller!SHFILL1_RVT!x531720y335640
*4260 xofiller!SHFILL1_RVT!x533240y335640
*4261 xofiller!SHFILL1_RVT!x534760y335640
*4262 xofiller!SHFILL1_RVT!x536280y335640
*4263 xofiller!SHFILL1_RVT!x537800y335640
*4264 xofiller!SHFILL1_RVT!x539320y335640
*4265 xofiller!SHFILL1_RVT!x540840y335640
*4266 xofiller!SHFILL1_RVT!x542360y335640
*4267 xofiller!SHFILL1_RVT!x543880y335640
*4268 xofiller!SHFILL1_RVT!x545400y335640
*4269 xofiller!SHFILL1_RVT!x546920y335640
*4270 xofiller!SHFILL1_RVT!x548440y335640
*4271 xofiller!SHFILL1_RVT!x549960y335640
*4272 xofiller!SHFILL1_RVT!x551480y335640
*4273 xofiller!SHFILL1_RVT!x568200y335640
*4274 xofiller!SHFILL1_RVT!x569720y335640
*4275 xofiller!SHFILL1_RVT!x571240y335640
*4276 xofiller!SHFILL1_RVT!x572760y335640
*4277 xofiller!SHFILL1_RVT!x574280y335640
*4278 xofiller!SHFILL1_RVT!x575800y335640
*4279 xofiller!SHFILL1_RVT!x577320y335640
*4280 xofiller!SHFILL1_RVT!x578840y335640
*4281 xofiller!SHFILL1_RVT!x580360y335640
*4282 xofiller!SHFILL1_RVT!x581880y335640
*4283 xofiller!SHFILL1_RVT!x583400y335640
*4284 xofiller!SHFILL1_RVT!x584920y335640
*4285 xofiller!SHFILL1_RVT!x586440y335640
*4286 xofiller!SHFILL1_RVT!x587960y335640
*4287 xofiller!SHFILL1_RVT!x589480y335640
*4288 xofiller!SHFILL1_RVT!x591000y335640
*4289 xofiller!SHFILL1_RVT!x592520y335640
*4290 xofiller!SHFILL1_RVT!x594040y335640
*4291 xofiller!SHFILL1_RVT!x595560y335640
*4292 xofiller!SHFILL1_RVT!x597080y335640
*4293 xofiller!SHFILL1_RVT!x598600y335640
*4294 xofiller!SHFILL1_RVT!x600120y335640
*4295 xofiller!SHFILL1_RVT!x601640y335640
*4296 xofiller!SHFILL1_RVT!x603160y335640
*4297 xofiller!SHFILL1_RVT!x604680y335640
*4298 xofiller!SHFILL1_RVT!x606200y335640
*4299 xofiller!SHFILL1_RVT!x607720y335640
*4300 xofiller!SHFILL1_RVT!x609240y335640
*4301 xofiller!SHFILL1_RVT!x610760y335640
*4302 xofiller!SHFILL1_RVT!x612280y335640
*4303 xofiller!SHFILL1_RVT!x613800y335640
*4304 xofiller!SHFILL1_RVT!x615320y335640
*4305 xofiller!SHFILL1_RVT!x616840y335640
*4306 xofiller!SHFILL1_RVT!x618360y335640
*4307 xofiller!SHFILL1_RVT!x619880y335640
*4308 xofiller!SHFILL1_RVT!x621400y335640
*4309 xofiller!SHFILL1_RVT!x622920y335640
*4310 xofiller!SHFILL1_RVT!x624440y335640
*4311 xofiller!SHFILL1_RVT!x625960y335640
*4312 xofiller!SHFILL1_RVT!x627480y335640
*4313 xofiller!SHFILL1_RVT!x629000y335640
*4314 xofiller!SHFILL1_RVT!x630520y335640
*4315 xofiller!SHFILL1_RVT!x632040y335640
*4316 xofiller!SHFILL1_RVT!x633560y335640
*4317 xofiller!SHFILL1_RVT!x635080y335640
*4318 xofiller!SHFILL1_RVT!x636600y335640
*4319 xofiller!SHFILL1_RVT!x638120y335640
*4320 xofiller!SHFILL1_RVT!x639640y335640
*4321 xofiller!SHFILL1_RVT!x641160y335640
*4322 xofiller!SHFILL1_RVT!x642680y335640
*4323 xofiller!SHFILL1_RVT!x644200y335640
*4324 xofiller!SHFILL1_RVT!x645720y335640
*4325 xofiller!SHFILL1_RVT!x647240y335640
*4326 xofiller!SHFILL1_RVT!x648760y335640
*4327 xofiller!SHFILL1_RVT!x650280y335640
*4328 xofiller!SHFILL1_RVT!x651800y335640
*4329 xofiller!SHFILL1_RVT!x653320y335640
*4330 xofiller!SHFILL1_RVT!x654840y335640
*4331 xofiller!SHFILL1_RVT!x656360y335640
*4332 xofiller!SHFILL1_RVT!x657880y335640
*4333 xofiller!SHFILL1_RVT!x659400y335640
*4334 xofiller!SHFILL1_RVT!x660920y335640
*4335 xofiller!SHFILL1_RVT!x662440y335640
*4336 xofiller!SHFILL1_RVT!x663960y335640
*4337 xofiller!SHFILL1_RVT!x665480y335640
*4338 xofiller!SHFILL1_RVT!x667000y335640
*4339 xofiller!SHFILL1_RVT!x668520y335640
*4340 xofiller!SHFILL1_RVT!x670040y335640
*4341 xofiller!SHFILL1_RVT!x671560y335640
*4342 xofiller!SHFILL1_RVT!x673080y335640
*4343 xofiller!SHFILL1_RVT!x674600y335640
*4344 xofiller!SHFILL1_RVT!x691320y335640
*4345 xofiller!SHFILL1_RVT!x692840y335640
*4346 xofiller!SHFILL1_RVT!x694360y335640
*4347 xofiller!SHFILL1_RVT!x695880y335640
*4348 xofiller!SHFILL1_RVT!x697400y335640
*4349 xofiller!SHFILL1_RVT!x698920y335640
*4350 xofiller!SHFILL1_RVT!x700440y335640
*4351 xofiller!SHFILL1_RVT!x701960y335640
*4352 xofiller!SHFILL1_RVT!x703480y335640
*4353 xofiller!SHFILL1_RVT!x705000y335640
*4354 xofiller!SHFILL1_RVT!x706520y335640
*4355 xofiller!SHFILL1_RVT!x708040y335640
*4356 xofiller!SHFILL1_RVT!x709560y335640
*4357 xofiller!SHFILL1_RVT!x711080y335640
*4358 xofiller!SHFILL1_RVT!x712600y335640
*4359 xofiller!SHFILL1_RVT!x714120y335640
*4360 xofiller!SHFILL1_RVT!x715640y335640
*4361 xofiller!SHFILL1_RVT!x717160y335640
*4362 xofiller!SHFILL1_RVT!x718680y335640
*4363 xofiller!SHFILL1_RVT!x720200y335640
*4364 xofiller!SHFILL1_RVT!x721720y335640
*4365 xofiller!SHFILL1_RVT!x723240y335640
*4366 xofiller!SHFILL1_RVT!x724760y335640
*4367 xofiller!SHFILL1_RVT!x726280y335640
*4368 xofiller!SHFILL1_RVT!x727800y335640
*4369 xofiller!SHFILL1_RVT!x729320y335640
*4370 xofiller!SHFILL1_RVT!x730840y335640
*4371 xofiller!SHFILL1_RVT!x732360y335640
*4372 xofiller!SHFILL1_RVT!x733880y335640
*4373 xofiller!SHFILL1_RVT!x735400y335640
*4374 xofiller!SHFILL1_RVT!x736920y335640
*4375 xofiller!SHFILL1_RVT!x738440y335640
*4376 xofiller!SHFILL1_RVT!x739960y335640
*4377 xofiller!SHFILL1_RVT!x741480y335640
*4378 xofiller!SHFILL1_RVT!x743000y335640
*4379 xofiller!SHFILL1_RVT!x744520y335640
*4380 xofiller!SHFILL1_RVT!x135000y352360
*4381 xofiller!SHFILL1_RVT!x136520y352360
*4382 xofiller!SHFILL1_RVT!x138040y352360
*4383 xofiller!SHFILL1_RVT!x139560y352360
*4384 xofiller!SHFILL1_RVT!x141080y352360
*4385 xofiller!SHFILL1_RVT!x142600y352360
*4386 xofiller!SHFILL1_RVT!x144120y352360
*4387 xofiller!SHFILL1_RVT!x145640y352360
*4388 xofiller!SHFILL1_RVT!x147160y352360
*4389 xofiller!SHFILL1_RVT!x148680y352360
*4390 xofiller!SHFILL1_RVT!x150200y352360
*4391 xofiller!SHFILL1_RVT!x151720y352360
*4392 xofiller!SHFILL1_RVT!x153240y352360
*4393 xofiller!SHFILL1_RVT!x154760y352360
*4394 xofiller!SHFILL1_RVT!x156280y352360
*4395 xofiller!SHFILL1_RVT!x157800y352360
*4396 xofiller!SHFILL1_RVT!x159320y352360
*4397 xofiller!SHFILL1_RVT!x160840y352360
*4398 xofiller!SHFILL1_RVT!x162360y352360
*4399 xofiller!SHFILL1_RVT!x163880y352360
*4400 xofiller!SHFILL1_RVT!x165400y352360
*4401 xofiller!SHFILL1_RVT!x166920y352360
*4402 xofiller!SHFILL1_RVT!x168440y352360
*4403 xofiller!SHFILL1_RVT!x169960y352360
*4404 xofiller!SHFILL1_RVT!x171480y352360
*4405 xofiller!SHFILL1_RVT!x173000y352360
*4406 xofiller!SHFILL1_RVT!x174520y352360
*4407 xofiller!SHFILL1_RVT!x176040y352360
*4408 xofiller!SHFILL1_RVT!x177560y352360
*4409 xofiller!SHFILL1_RVT!x179080y352360
*4410 xofiller!SHFILL1_RVT!x180600y352360
*4411 xofiller!SHFILL1_RVT!x182120y352360
*4412 xofiller!SHFILL1_RVT!x183640y352360
*4413 xofiller!SHFILL1_RVT!x185160y352360
*4414 xofiller!SHFILL1_RVT!x186680y352360
*4415 xofiller!SHFILL1_RVT!x188200y352360
*4416 xofiller!SHFILL1_RVT!x189720y352360
*4417 xofiller!SHFILL1_RVT!x191240y352360
*4418 xofiller!SHFILL1_RVT!x192760y352360
*4419 xofiller!SHFILL1_RVT!x194280y352360
*4420 xofiller!SHFILL1_RVT!x195800y352360
*4421 xofiller!SHFILL1_RVT!x197320y352360
*4422 xofiller!SHFILL1_RVT!x198840y352360
*4423 xofiller!SHFILL1_RVT!x200360y352360
*4424 xofiller!SHFILL1_RVT!x201880y352360
*4425 xofiller!SHFILL1_RVT!x203400y352360
*4426 xofiller!SHFILL1_RVT!x204920y352360
*4427 xofiller!SHFILL1_RVT!x206440y352360
*4428 xofiller!SHFILL1_RVT!x253560y352360
*4429 xofiller!SHFILL1_RVT!x255080y352360
*4430 xofiller!SHFILL1_RVT!x256600y352360
*4431 xofiller!SHFILL1_RVT!x258120y352360
*4432 xofiller!SHFILL1_RVT!x259640y352360
*4433 xofiller!SHFILL1_RVT!x261160y352360
*4434 xofiller!SHFILL1_RVT!x262680y352360
*4435 xofiller!SHFILL1_RVT!x264200y352360
*4436 xofiller!SHFILL1_RVT!x265720y352360
*4437 xofiller!SHFILL1_RVT!x279400y352360
*4438 xofiller!SHFILL1_RVT!x280920y352360
*4439 xofiller!SHFILL1_RVT!x282440y352360
*4440 xofiller!SHFILL1_RVT!x303720y352360
*4441 xofiller!SHFILL1_RVT!x305240y352360
*4442 xofiller!SHFILL1_RVT!x306760y352360
*4443 xofiller!SHFILL1_RVT!x323480y352360
*4444 xofiller!SHFILL1_RVT!x325000y352360
*4445 xofiller!SHFILL1_RVT!x326520y352360
*4446 xofiller!SHFILL1_RVT!x328040y352360
*4447 xofiller!SHFILL1_RVT!x329560y352360
*4448 xofiller!SHFILL1_RVT!x331080y352360
*4449 xofiller!SHFILL1_RVT!x332600y352360
*4450 xofiller!SHFILL1_RVT!x334120y352360
*4451 xofiller!SHFILL1_RVT!x343240y352360
*4452 xofiller!SHFILL1_RVT!x344760y352360
*4453 xofiller!SHFILL1_RVT!x346280y352360
*4454 xofiller!SHFILL1_RVT!x347800y352360
*4455 xofiller!SHFILL1_RVT!x349320y352360
*4456 xofiller!SHFILL1_RVT!x350840y352360
*4457 xofiller!SHFILL1_RVT!x352360y352360
*4458 xofiller!SHFILL1_RVT!x353880y352360
*4459 xofiller!SHFILL1_RVT!x355400y352360
*4460 xofiller!SHFILL1_RVT!x356920y352360
*4461 xofiller!SHFILL1_RVT!x358440y352360
*4462 xofiller!SHFILL1_RVT!x359960y352360
*4463 xofiller!SHFILL1_RVT!x361480y352360
*4464 xofiller!SHFILL1_RVT!x363000y352360
*4465 xofiller!SHFILL1_RVT!x364520y352360
*4466 xofiller!SHFILL1_RVT!x366040y352360
*4467 xofiller!SHFILL1_RVT!x367560y352360
*4468 xofiller!SHFILL1_RVT!x369080y352360
*4469 xofiller!SHFILL1_RVT!x370600y352360
*4470 xofiller!SHFILL1_RVT!x372120y352360
*4471 xofiller!SHFILL1_RVT!x373640y352360
*4472 xofiller!SHFILL1_RVT!x375160y352360
*4473 xofiller!SHFILL1_RVT!x376680y352360
*4474 xofiller!SHFILL1_RVT!x378200y352360
*4475 xofiller!SHFILL1_RVT!x379720y352360
*4476 xofiller!SHFILL1_RVT!x381240y352360
*4477 xofiller!SHFILL1_RVT!x382760y352360
*4478 xofiller!SHFILL1_RVT!x384280y352360
*4479 xofiller!SHFILL1_RVT!x385800y352360
*4480 xofiller!SHFILL1_RVT!x387320y352360
*4481 xofiller!SHFILL1_RVT!x388840y352360
*4482 xofiller!SHFILL1_RVT!x390360y352360
*4483 xofiller!SHFILL1_RVT!x391880y352360
*4484 xofiller!SHFILL1_RVT!x393400y352360
*4485 xofiller!SHFILL1_RVT!x394920y352360
*4486 xofiller!SHFILL1_RVT!x396440y352360
*4487 xofiller!SHFILL1_RVT!x397960y352360
*4488 xofiller!SHFILL1_RVT!x399480y352360
*4489 xofiller!SHFILL1_RVT!x401000y352360
*4490 xofiller!SHFILL1_RVT!x402520y352360
*4491 xofiller!SHFILL1_RVT!x404040y352360
*4492 xofiller!SHFILL1_RVT!x405560y352360
*4493 xofiller!SHFILL1_RVT!x407080y352360
*4494 xofiller!SHFILL1_RVT!x408600y352360
*4495 xofiller!SHFILL1_RVT!x410120y352360
*4496 xofiller!SHFILL1_RVT!x411640y352360
*4497 xofiller!SHFILL1_RVT!x413160y352360
*4498 xofiller!SHFILL1_RVT!x414680y352360
*4499 xofiller!SHFILL1_RVT!x416200y352360
*4500 xofiller!SHFILL1_RVT!x417720y352360
*4501 xofiller!SHFILL1_RVT!x419240y352360
*4502 xofiller!SHFILL1_RVT!x420760y352360
*4503 xofiller!SHFILL1_RVT!x431400y352360
*4504 xofiller!SHFILL1_RVT!x432920y352360
*4505 xofiller!SHFILL1_RVT!x434440y352360
*4506 xofiller!SHFILL1_RVT!x435960y352360
*4507 xofiller!SHFILL1_RVT!x437480y352360
*4508 xofiller!SHFILL1_RVT!x439000y352360
*4509 xofiller!SHFILL1_RVT!x440520y352360
*4510 xofiller!SHFILL1_RVT!x442040y352360
*4511 xofiller!SHFILL1_RVT!x443560y352360
*4512 xofiller!SHFILL1_RVT!x445080y352360
*4513 xofiller!SHFILL1_RVT!x446600y352360
*4514 xofiller!SHFILL1_RVT!x448120y352360
*4515 xofiller!SHFILL1_RVT!x449640y352360
*4516 xofiller!SHFILL1_RVT!x451160y352360
*4517 xofiller!SHFILL1_RVT!x495240y352360
*4518 xofiller!SHFILL1_RVT!x496760y352360
*4519 xofiller!SHFILL1_RVT!x498280y352360
*4520 xofiller!SHFILL1_RVT!x499800y352360
*4521 xofiller!SHFILL1_RVT!x501320y352360
*4522 xofiller!SHFILL1_RVT!x511960y352360
*4523 xofiller!SHFILL1_RVT!x513480y352360
*4524 xofiller!SHFILL1_RVT!x515000y352360
*4525 xofiller!SHFILL1_RVT!x516520y352360
*4526 xofiller!SHFILL1_RVT!x518040y352360
*4527 xofiller!SHFILL1_RVT!x519560y352360
*4528 xofiller!SHFILL1_RVT!x521080y352360
*4529 xofiller!SHFILL1_RVT!x522600y352360
*4530 xofiller!SHFILL1_RVT!x524120y352360
*4531 xofiller!SHFILL1_RVT!x525640y352360
*4532 xofiller!SHFILL1_RVT!x527160y352360
*4533 xofiller!SHFILL1_RVT!x528680y352360
*4534 xofiller!SHFILL1_RVT!x530200y352360
*4535 xofiller!SHFILL1_RVT!x531720y352360
*4536 xofiller!SHFILL1_RVT!x533240y352360
*4537 xofiller!SHFILL1_RVT!x534760y352360
*4538 xofiller!SHFILL1_RVT!x536280y352360
*4539 xofiller!SHFILL1_RVT!x537800y352360
*4540 xofiller!SHFILL1_RVT!x539320y352360
*4541 xofiller!SHFILL1_RVT!x540840y352360
*4542 xofiller!SHFILL1_RVT!x542360y352360
*4543 xofiller!SHFILL1_RVT!x543880y352360
*4544 xofiller!SHFILL1_RVT!x545400y352360
*4545 xofiller!SHFILL1_RVT!x546920y352360
*4546 xofiller!SHFILL1_RVT!x548440y352360
*4547 xofiller!SHFILL1_RVT!x549960y352360
*4548 xofiller!SHFILL1_RVT!x551480y352360
*4549 xofiller!SHFILL1_RVT!x568200y352360
*4550 xofiller!SHFILL1_RVT!x569720y352360
*4551 xofiller!SHFILL1_RVT!x571240y352360
*4552 xofiller!SHFILL1_RVT!x572760y352360
*4553 xofiller!SHFILL1_RVT!x574280y352360
*4554 xofiller!SHFILL1_RVT!x575800y352360
*4555 xofiller!SHFILL1_RVT!x577320y352360
*4556 xofiller!SHFILL1_RVT!x578840y352360
*4557 xofiller!SHFILL1_RVT!x580360y352360
*4558 xofiller!SHFILL1_RVT!x581880y352360
*4559 xofiller!SHFILL1_RVT!x583400y352360
*4560 xofiller!SHFILL1_RVT!x584920y352360
*4561 xofiller!SHFILL1_RVT!x586440y352360
*4562 xofiller!SHFILL1_RVT!x587960y352360
*4563 xofiller!SHFILL1_RVT!x589480y352360
*4564 xofiller!SHFILL1_RVT!x591000y352360
*4565 xofiller!SHFILL1_RVT!x592520y352360
*4566 xofiller!SHFILL1_RVT!x594040y352360
*4567 xofiller!SHFILL1_RVT!x595560y352360
*4568 xofiller!SHFILL1_RVT!x597080y352360
*4569 xofiller!SHFILL1_RVT!x598600y352360
*4570 xofiller!SHFILL1_RVT!x600120y352360
*4571 xofiller!SHFILL1_RVT!x601640y352360
*4572 xofiller!SHFILL1_RVT!x603160y352360
*4573 xofiller!SHFILL1_RVT!x604680y352360
*4574 xofiller!SHFILL1_RVT!x606200y352360
*4575 xofiller!SHFILL1_RVT!x607720y352360
*4576 xofiller!SHFILL1_RVT!x609240y352360
*4577 xofiller!SHFILL1_RVT!x610760y352360
*4578 xofiller!SHFILL1_RVT!x612280y352360
*4579 xofiller!SHFILL1_RVT!x613800y352360
*4580 xofiller!SHFILL1_RVT!x615320y352360
*4581 xofiller!SHFILL1_RVT!x616840y352360
*4582 xofiller!SHFILL1_RVT!x633560y352360
*4583 xofiller!SHFILL1_RVT!x635080y352360
*4584 xofiller!SHFILL1_RVT!x636600y352360
*4585 xofiller!SHFILL1_RVT!x638120y352360
*4586 xofiller!SHFILL1_RVT!x639640y352360
*4587 xofiller!SHFILL1_RVT!x641160y352360
*4588 xofiller!SHFILL1_RVT!x642680y352360
*4589 xofiller!SHFILL1_RVT!x644200y352360
*4590 xofiller!SHFILL1_RVT!x645720y352360
*4591 xofiller!SHFILL1_RVT!x647240y352360
*4592 xofiller!SHFILL1_RVT!x648760y352360
*4593 xofiller!SHFILL1_RVT!x650280y352360
*4594 xofiller!SHFILL1_RVT!x651800y352360
*4595 xofiller!SHFILL1_RVT!x653320y352360
*4596 xofiller!SHFILL1_RVT!x654840y352360
*4597 xofiller!SHFILL1_RVT!x656360y352360
*4598 xofiller!SHFILL1_RVT!x657880y352360
*4599 xofiller!SHFILL1_RVT!x659400y352360
*4600 xofiller!SHFILL1_RVT!x660920y352360
*4601 xofiller!SHFILL1_RVT!x662440y352360
*4602 xofiller!SHFILL1_RVT!x663960y352360
*4603 xofiller!SHFILL1_RVT!x665480y352360
*4604 xofiller!SHFILL1_RVT!x667000y352360
*4605 xofiller!SHFILL1_RVT!x668520y352360
*4606 xofiller!SHFILL1_RVT!x670040y352360
*4607 xofiller!SHFILL1_RVT!x671560y352360
*4608 xofiller!SHFILL1_RVT!x673080y352360
*4609 xofiller!SHFILL1_RVT!x674600y352360
*4610 xofiller!SHFILL1_RVT!x676120y352360
*4611 xofiller!SHFILL1_RVT!x677640y352360
*4612 xofiller!SHFILL1_RVT!x679160y352360
*4613 xofiller!SHFILL1_RVT!x680680y352360
*4614 xofiller!SHFILL1_RVT!x682200y352360
*4615 xofiller!SHFILL1_RVT!x683720y352360
*4616 xofiller!SHFILL1_RVT!x685240y352360
*4617 xofiller!SHFILL1_RVT!x686760y352360
*4618 xofiller!SHFILL1_RVT!x688280y352360
*4619 xofiller!SHFILL1_RVT!x689800y352360
*4620 xofiller!SHFILL1_RVT!x691320y352360
*4621 xofiller!SHFILL1_RVT!x692840y352360
*4622 xofiller!SHFILL1_RVT!x694360y352360
*4623 xofiller!SHFILL1_RVT!x695880y352360
*4624 xofiller!SHFILL1_RVT!x697400y352360
*4625 xofiller!SHFILL1_RVT!x698920y352360
*4626 xofiller!SHFILL1_RVT!x726280y352360
*4627 xofiller!SHFILL1_RVT!x727800y352360
*4628 xofiller!SHFILL1_RVT!x729320y352360
*4629 xofiller!SHFILL1_RVT!x730840y352360
*4630 xofiller!SHFILL1_RVT!x732360y352360
*4631 xofiller!SHFILL1_RVT!x733880y352360
*4632 xofiller!SHFILL1_RVT!x735400y352360
*4633 xofiller!SHFILL1_RVT!x736920y352360
*4634 xofiller!SHFILL1_RVT!x738440y352360
*4635 xofiller!SHFILL1_RVT!x739960y352360
*4636 xofiller!SHFILL1_RVT!x741480y352360
*4637 xofiller!SHFILL1_RVT!x743000y352360
*4638 xofiller!SHFILL1_RVT!x744520y352360
*4639 xofiller!SHFILL1_RVT!x135000y369080
*4640 xofiller!SHFILL1_RVT!x136520y369080
*4641 xofiller!SHFILL1_RVT!x138040y369080
*4642 xofiller!SHFILL1_RVT!x139560y369080
*4643 xofiller!SHFILL1_RVT!x141080y369080
*4644 xofiller!SHFILL1_RVT!x142600y369080
*4645 xofiller!SHFILL1_RVT!x144120y369080
*4646 xofiller!SHFILL1_RVT!x145640y369080
*4647 xofiller!SHFILL1_RVT!x147160y369080
*4648 xofiller!SHFILL1_RVT!x148680y369080
*4649 xofiller!SHFILL1_RVT!x150200y369080
*4650 xofiller!SHFILL1_RVT!x151720y369080
*4651 xofiller!SHFILL1_RVT!x153240y369080
*4652 xofiller!SHFILL1_RVT!x154760y369080
*4653 xofiller!SHFILL1_RVT!x156280y369080
*4654 xofiller!SHFILL1_RVT!x157800y369080
*4655 xofiller!SHFILL1_RVT!x159320y369080
*4656 xofiller!SHFILL1_RVT!x160840y369080
*4657 xofiller!SHFILL1_RVT!x162360y369080
*4658 xofiller!SHFILL1_RVT!x163880y369080
*4659 xofiller!SHFILL1_RVT!x165400y369080
*4660 xofiller!SHFILL1_RVT!x166920y369080
*4661 xofiller!SHFILL1_RVT!x168440y369080
*4662 xofiller!SHFILL1_RVT!x169960y369080
*4663 xofiller!SHFILL1_RVT!x171480y369080
*4664 xofiller!SHFILL1_RVT!x173000y369080
*4665 xofiller!SHFILL1_RVT!x174520y369080
*4666 xofiller!SHFILL1_RVT!x176040y369080
*4667 xofiller!SHFILL1_RVT!x177560y369080
*4668 xofiller!SHFILL1_RVT!x179080y369080
*4669 xofiller!SHFILL1_RVT!x180600y369080
*4670 xofiller!SHFILL1_RVT!x182120y369080
*4671 xofiller!SHFILL1_RVT!x183640y369080
*4672 xofiller!SHFILL1_RVT!x200360y369080
*4673 xofiller!SHFILL1_RVT!x201880y369080
*4674 xofiller!SHFILL1_RVT!x203400y369080
*4675 xofiller!SHFILL1_RVT!x204920y369080
*4676 xofiller!SHFILL1_RVT!x206440y369080
*4677 xofiller!SHFILL1_RVT!x207960y369080
*4678 xofiller!SHFILL1_RVT!x209480y369080
*4679 xofiller!SHFILL1_RVT!x253560y369080
*4680 xofiller!SHFILL1_RVT!x255080y369080
*4681 xofiller!SHFILL1_RVT!x256600y369080
*4682 xofiller!SHFILL1_RVT!x258120y369080
*4683 xofiller!SHFILL1_RVT!x259640y369080
*4684 xofiller!SHFILL1_RVT!x261160y369080
*4685 xofiller!SHFILL1_RVT!x262680y369080
*4686 xofiller!SHFILL1_RVT!x264200y369080
*4687 xofiller!SHFILL1_RVT!x265720y369080
*4688 xofiller!SHFILL1_RVT!x267240y369080
*4689 xofiller!SHFILL1_RVT!x268760y369080
*4690 xofiller!SHFILL1_RVT!x270280y369080
*4691 xofiller!SHFILL1_RVT!x271800y369080
*4692 xofiller!SHFILL1_RVT!x273320y369080
*4693 xofiller!SHFILL1_RVT!x274840y369080
*4694 xofiller!SHFILL1_RVT!x276360y369080
*4695 xofiller!SHFILL1_RVT!x277880y369080
*4696 xofiller!SHFILL1_RVT!x279400y369080
*4697 xofiller!SHFILL1_RVT!x280920y369080
*4698 xofiller!SHFILL1_RVT!x282440y369080
*4699 xofiller!SHFILL1_RVT!x283960y369080
*4700 xofiller!SHFILL1_RVT!x285480y369080
*4701 xofiller!SHFILL1_RVT!x287000y369080
*4702 xofiller!SHFILL1_RVT!x288520y369080
*4703 xofiller!SHFILL1_RVT!x290040y369080
*4704 xofiller!SHFILL1_RVT!x291560y369080
*4705 xofiller!SHFILL1_RVT!x293080y369080
*4706 xofiller!SHFILL1_RVT!x294600y369080
*4707 xofiller!SHFILL1_RVT!x296120y369080
*4708 xofiller!SHFILL1_RVT!x297640y369080
*4709 xofiller!SHFILL1_RVT!x299160y369080
*4710 xofiller!SHFILL1_RVT!x300680y369080
*4711 xofiller!SHFILL1_RVT!x302200y369080
*4712 xofiller!SHFILL1_RVT!x303720y369080
*4713 xofiller!SHFILL1_RVT!x317400y369080
*4714 xofiller!SHFILL1_RVT!x318920y369080
*4715 xofiller!SHFILL1_RVT!x320440y369080
*4716 xofiller!SHFILL1_RVT!x321960y369080
*4717 xofiller!SHFILL1_RVT!x323480y369080
*4718 xofiller!SHFILL1_RVT!x325000y369080
*4719 xofiller!SHFILL1_RVT!x326520y369080
*4720 xofiller!SHFILL1_RVT!x328040y369080
*4721 xofiller!SHFILL1_RVT!x329560y369080
*4722 xofiller!SHFILL1_RVT!x331080y369080
*4723 xofiller!SHFILL1_RVT!x332600y369080
*4724 xofiller!SHFILL1_RVT!x334120y369080
*4725 xofiller!SHFILL1_RVT!x335640y369080
*4726 xofiller!SHFILL1_RVT!x337160y369080
*4727 xofiller!SHFILL1_RVT!x338680y369080
*4728 xofiller!SHFILL1_RVT!x340200y369080
*4729 xofiller!SHFILL1_RVT!x341720y369080
*4730 xofiller!SHFILL1_RVT!x343240y369080
*4731 xofiller!SHFILL1_RVT!x356920y369080
*4732 xofiller!SHFILL1_RVT!x358440y369080
*4733 xofiller!SHFILL1_RVT!x359960y369080
*4734 xofiller!SHFILL1_RVT!x361480y369080
*4735 xofiller!SHFILL1_RVT!x363000y369080
*4736 xofiller!SHFILL1_RVT!x364520y369080
*4737 xofiller!SHFILL1_RVT!x366040y369080
*4738 xofiller!SHFILL1_RVT!x378200y369080
*4739 xofiller!SHFILL1_RVT!x379720y369080
*4740 xofiller!SHFILL1_RVT!x381240y369080
*4741 xofiller!SHFILL1_RVT!x382760y369080
*4742 xofiller!SHFILL1_RVT!x384280y369080
*4743 xofiller!SHFILL1_RVT!x385800y369080
*4744 xofiller!SHFILL1_RVT!x387320y369080
*4745 xofiller!SHFILL1_RVT!x388840y369080
*4746 xofiller!SHFILL1_RVT!x390360y369080
*4747 xofiller!SHFILL1_RVT!x391880y369080
*4748 xofiller!SHFILL1_RVT!x393400y369080
*4749 xofiller!SHFILL1_RVT!x405560y369080
*4750 xofiller!SHFILL1_RVT!x407080y369080
*4751 xofiller!SHFILL1_RVT!x408600y369080
*4752 xofiller!SHFILL1_RVT!x410120y369080
*4753 xofiller!SHFILL1_RVT!x411640y369080
*4754 xofiller!SHFILL1_RVT!x413160y369080
*4755 xofiller!SHFILL1_RVT!x414680y369080
*4756 xofiller!SHFILL1_RVT!x416200y369080
*4757 xofiller!SHFILL1_RVT!x417720y369080
*4758 xofiller!SHFILL1_RVT!x419240y369080
*4759 xofiller!SHFILL1_RVT!x420760y369080
*4760 xofiller!SHFILL1_RVT!x422280y369080
*4761 xofiller!SHFILL1_RVT!x423800y369080
*4762 xofiller!SHFILL1_RVT!x425320y369080
*4763 xofiller!SHFILL1_RVT!x426840y369080
*4764 xofiller!SHFILL1_RVT!x428360y369080
*4765 xofiller!SHFILL1_RVT!x429880y369080
*4766 xofiller!SHFILL1_RVT!x431400y369080
*4767 xofiller!SHFILL1_RVT!x432920y369080
*4768 xofiller!SHFILL1_RVT!x434440y369080
*4769 xofiller!SHFILL1_RVT!x445080y369080
*4770 xofiller!SHFILL1_RVT!x446600y369080
*4771 xofiller!SHFILL1_RVT!x448120y369080
*4772 xofiller!SHFILL1_RVT!x449640y369080
*4773 xofiller!SHFILL1_RVT!x451160y369080
*4774 xofiller!SHFILL1_RVT!x452680y369080
*4775 xofiller!SHFILL1_RVT!x454200y369080
*4776 xofiller!SHFILL1_RVT!x455720y369080
*4777 xofiller!SHFILL1_RVT!x457240y369080
*4778 xofiller!SHFILL1_RVT!x458760y369080
*4779 xofiller!SHFILL1_RVT!x460280y369080
*4780 xofiller!SHFILL1_RVT!x461800y369080
*4781 xofiller!SHFILL1_RVT!x463320y369080
*4782 xofiller!SHFILL1_RVT!x464840y369080
*4783 xofiller!SHFILL1_RVT!x466360y369080
*4784 xofiller!SHFILL1_RVT!x467880y369080
*4785 xofiller!SHFILL1_RVT!x469400y369080
*4786 xofiller!SHFILL1_RVT!x470920y369080
*4787 xofiller!SHFILL1_RVT!x472440y369080
*4788 xofiller!SHFILL1_RVT!x473960y369080
*4789 xofiller!SHFILL1_RVT!x475480y369080
*4790 xofiller!SHFILL1_RVT!x477000y369080
*4791 xofiller!SHFILL1_RVT!x478520y369080
*4792 xofiller!SHFILL1_RVT!x480040y369080
*4793 xofiller!SHFILL1_RVT!x481560y369080
*4794 xofiller!SHFILL1_RVT!x483080y369080
*4795 xofiller!SHFILL1_RVT!x484600y369080
*4796 xofiller!SHFILL1_RVT!x486120y369080
*4797 xofiller!SHFILL1_RVT!x487640y369080
*4798 xofiller!SHFILL1_RVT!x489160y369080
*4799 xofiller!SHFILL1_RVT!x490680y369080
*4800 xofiller!SHFILL1_RVT!x492200y369080
*4801 xofiller!SHFILL1_RVT!x493720y369080
*4802 xofiller!SHFILL1_RVT!x495240y369080
*4803 xofiller!SHFILL1_RVT!x496760y369080
*4804 xofiller!SHFILL1_RVT!x498280y369080
*4805 xofiller!SHFILL1_RVT!x499800y369080
*4806 xofiller!SHFILL1_RVT!x501320y369080
*4807 xofiller!SHFILL1_RVT!x511960y369080
*4808 xofiller!SHFILL1_RVT!x513480y369080
*4809 xofiller!SHFILL1_RVT!x515000y369080
*4810 xofiller!SHFILL1_RVT!x516520y369080
*4811 xofiller!SHFILL1_RVT!x518040y369080
*4812 xofiller!SHFILL1_RVT!x519560y369080
*4813 xofiller!SHFILL1_RVT!x521080y369080
*4814 xofiller!SHFILL1_RVT!x522600y369080
*4815 xofiller!SHFILL1_RVT!x524120y369080
*4816 xofiller!SHFILL1_RVT!x525640y369080
*4817 xofiller!SHFILL1_RVT!x527160y369080
*4818 xofiller!SHFILL1_RVT!x528680y369080
*4819 xofiller!SHFILL1_RVT!x537800y369080
*4820 xofiller!SHFILL1_RVT!x539320y369080
*4821 xofiller!SHFILL1_RVT!x540840y369080
*4822 xofiller!SHFILL1_RVT!x542360y369080
*4823 xofiller!SHFILL1_RVT!x543880y369080
*4824 xofiller!SHFILL1_RVT!x545400y369080
*4825 xofiller!SHFILL1_RVT!x546920y369080
*4826 xofiller!SHFILL1_RVT!x548440y369080
*4827 xofiller!SHFILL1_RVT!x549960y369080
*4828 xofiller!SHFILL1_RVT!x551480y369080
*4829 xofiller!SHFILL1_RVT!x553000y369080
*4830 xofiller!SHFILL1_RVT!x554520y369080
*4831 xofiller!SHFILL1_RVT!x556040y369080
*4832 xofiller!SHFILL1_RVT!x557560y369080
*4833 xofiller!SHFILL1_RVT!x559080y369080
*4834 xofiller!SHFILL1_RVT!x560600y369080
*4835 xofiller!SHFILL1_RVT!x562120y369080
*4836 xofiller!SHFILL1_RVT!x563640y369080
*4837 xofiller!SHFILL1_RVT!x565160y369080
*4838 xofiller!SHFILL1_RVT!x566680y369080
*4839 xofiller!SHFILL1_RVT!x568200y369080
*4840 xofiller!SHFILL1_RVT!x569720y369080
*4841 xofiller!SHFILL1_RVT!x571240y369080
*4842 xofiller!SHFILL1_RVT!x572760y369080
*4843 xofiller!SHFILL1_RVT!x574280y369080
*4844 xofiller!SHFILL1_RVT!x575800y369080
*4845 xofiller!SHFILL1_RVT!x577320y369080
*4846 xofiller!SHFILL1_RVT!x578840y369080
*4847 xofiller!SHFILL1_RVT!x580360y369080
*4848 xofiller!SHFILL1_RVT!x581880y369080
*4849 xofiller!SHFILL1_RVT!x583400y369080
*4850 xofiller!SHFILL1_RVT!x584920y369080
*4851 xofiller!SHFILL1_RVT!x586440y369080
*4852 xofiller!SHFILL1_RVT!x587960y369080
*4853 xofiller!SHFILL1_RVT!x589480y369080
*4854 xofiller!SHFILL1_RVT!x591000y369080
*4855 xofiller!SHFILL1_RVT!x592520y369080
*4856 xofiller!SHFILL1_RVT!x594040y369080
*4857 xofiller!SHFILL1_RVT!x595560y369080
*4858 xofiller!SHFILL1_RVT!x597080y369080
*4859 xofiller!SHFILL1_RVT!x598600y369080
*4860 xofiller!SHFILL1_RVT!x600120y369080
*4861 xofiller!SHFILL1_RVT!x601640y369080
*4862 xofiller!SHFILL1_RVT!x603160y369080
*4863 xofiller!SHFILL1_RVT!x604680y369080
*4864 xofiller!SHFILL1_RVT!x606200y369080
*4865 xofiller!SHFILL1_RVT!x607720y369080
*4866 xofiller!SHFILL1_RVT!x609240y369080
*4867 xofiller!SHFILL1_RVT!x610760y369080
*4868 xofiller!SHFILL1_RVT!x612280y369080
*4869 xofiller!SHFILL1_RVT!x613800y369080
*4870 xofiller!SHFILL1_RVT!x615320y369080
*4871 xofiller!SHFILL1_RVT!x616840y369080
*4872 xofiller!SHFILL1_RVT!x618360y369080
*4873 xofiller!SHFILL1_RVT!x619880y369080
*4874 xofiller!SHFILL1_RVT!x621400y369080
*4875 xofiller!SHFILL1_RVT!x622920y369080
*4876 xofiller!SHFILL1_RVT!x624440y369080
*4877 xofiller!SHFILL1_RVT!x625960y369080
*4878 xofiller!SHFILL1_RVT!x627480y369080
*4879 xofiller!SHFILL1_RVT!x629000y369080
*4880 xofiller!SHFILL1_RVT!x630520y369080
*4881 xofiller!SHFILL1_RVT!x632040y369080
*4882 xofiller!SHFILL1_RVT!x633560y369080
*4883 xofiller!SHFILL1_RVT!x635080y369080
*4884 xofiller!SHFILL1_RVT!x636600y369080
*4885 xofiller!SHFILL1_RVT!x638120y369080
*4886 xofiller!SHFILL1_RVT!x639640y369080
*4887 xofiller!SHFILL1_RVT!x641160y369080
*4888 xofiller!SHFILL1_RVT!x642680y369080
*4889 xofiller!SHFILL1_RVT!x644200y369080
*4890 xofiller!SHFILL1_RVT!x645720y369080
*4891 xofiller!SHFILL1_RVT!x647240y369080
*4892 xofiller!SHFILL1_RVT!x648760y369080
*4893 xofiller!SHFILL1_RVT!x650280y369080
*4894 xofiller!SHFILL1_RVT!x651800y369080
*4895 xofiller!SHFILL1_RVT!x653320y369080
*4896 xofiller!SHFILL1_RVT!x654840y369080
*4897 xofiller!SHFILL1_RVT!x656360y369080
*4898 xofiller!SHFILL1_RVT!x657880y369080
*4899 xofiller!SHFILL1_RVT!x659400y369080
*4900 xofiller!SHFILL1_RVT!x660920y369080
*4901 xofiller!SHFILL1_RVT!x662440y369080
*4902 xofiller!SHFILL1_RVT!x663960y369080
*4903 xofiller!SHFILL1_RVT!x665480y369080
*4904 xofiller!SHFILL1_RVT!x667000y369080
*4905 xofiller!SHFILL1_RVT!x668520y369080
*4906 xofiller!SHFILL1_RVT!x670040y369080
*4907 xofiller!SHFILL1_RVT!x671560y369080
*4908 xofiller!SHFILL1_RVT!x673080y369080
*4909 xofiller!SHFILL1_RVT!x674600y369080
*4910 xofiller!SHFILL1_RVT!x676120y369080
*4911 xofiller!SHFILL1_RVT!x677640y369080
*4912 xofiller!SHFILL1_RVT!x679160y369080
*4913 xofiller!SHFILL1_RVT!x680680y369080
*4914 xofiller!SHFILL1_RVT!x682200y369080
*4915 xofiller!SHFILL1_RVT!x683720y369080
*4916 xofiller!SHFILL1_RVT!x685240y369080
*4917 xofiller!SHFILL1_RVT!x686760y369080
*4918 xofiller!SHFILL1_RVT!x688280y369080
*4919 xofiller!SHFILL1_RVT!x689800y369080
*4920 xofiller!SHFILL1_RVT!x691320y369080
*4921 xofiller!SHFILL1_RVT!x692840y369080
*4922 xofiller!SHFILL1_RVT!x694360y369080
*4923 xofiller!SHFILL1_RVT!x695880y369080
*4924 xofiller!SHFILL1_RVT!x697400y369080
*4925 xofiller!SHFILL1_RVT!x698920y369080
*4926 xofiller!SHFILL1_RVT!x700440y369080
*4927 xofiller!SHFILL1_RVT!x701960y369080
*4928 xofiller!SHFILL1_RVT!x703480y369080
*4929 xofiller!SHFILL1_RVT!x705000y369080
*4930 xofiller!SHFILL1_RVT!x706520y369080
*4931 xofiller!SHFILL1_RVT!x708040y369080
*4932 xofiller!SHFILL1_RVT!x709560y369080
*4933 xofiller!SHFILL1_RVT!x711080y369080
*4934 xofiller!SHFILL1_RVT!x712600y369080
*4935 xofiller!SHFILL1_RVT!x714120y369080
*4936 xofiller!SHFILL1_RVT!x715640y369080
*4937 xofiller!SHFILL1_RVT!x717160y369080
*4938 xofiller!SHFILL1_RVT!x718680y369080
*4939 xofiller!SHFILL1_RVT!x720200y369080
*4940 xofiller!SHFILL1_RVT!x721720y369080
*4941 xofiller!SHFILL1_RVT!x723240y369080
*4942 xofiller!SHFILL1_RVT!x724760y369080
*4943 xofiller!SHFILL1_RVT!x726280y369080
*4944 xofiller!SHFILL1_RVT!x727800y369080
*4945 xofiller!SHFILL1_RVT!x729320y369080
*4946 xofiller!SHFILL1_RVT!x730840y369080
*4947 xofiller!SHFILL1_RVT!x732360y369080
*4948 xofiller!SHFILL1_RVT!x733880y369080
*4949 xofiller!SHFILL1_RVT!x735400y369080
*4950 xofiller!SHFILL1_RVT!x736920y369080
*4951 xofiller!SHFILL1_RVT!x738440y369080
*4952 xofiller!SHFILL1_RVT!x739960y369080
*4953 xofiller!SHFILL1_RVT!x741480y369080
*4954 xofiller!SHFILL1_RVT!x743000y369080
*4955 xofiller!SHFILL1_RVT!x744520y369080
*4956 xofiller!SHFILL1_RVT!x135000y385800
*4957 xofiller!SHFILL1_RVT!x136520y385800
*4958 xofiller!SHFILL1_RVT!x138040y385800
*4959 xofiller!SHFILL1_RVT!x139560y385800
*4960 xofiller!SHFILL1_RVT!x141080y385800
*4961 xofiller!SHFILL1_RVT!x142600y385800
*4962 xofiller!SHFILL1_RVT!x144120y385800
*4963 xofiller!SHFILL1_RVT!x145640y385800
*4964 xofiller!SHFILL1_RVT!x147160y385800
*4965 xofiller!SHFILL1_RVT!x148680y385800
*4966 xofiller!SHFILL1_RVT!x150200y385800
*4967 xofiller!SHFILL1_RVT!x151720y385800
*4968 xofiller!SHFILL1_RVT!x153240y385800
*4969 xofiller!SHFILL1_RVT!x154760y385800
*4970 xofiller!SHFILL1_RVT!x156280y385800
*4971 xofiller!SHFILL1_RVT!x157800y385800
*4972 xofiller!SHFILL1_RVT!x159320y385800
*4973 xofiller!SHFILL1_RVT!x160840y385800
*4974 xofiller!SHFILL1_RVT!x162360y385800
*4975 xofiller!SHFILL1_RVT!x163880y385800
*4976 xofiller!SHFILL1_RVT!x165400y385800
*4977 xofiller!SHFILL1_RVT!x166920y385800
*4978 xofiller!SHFILL1_RVT!x168440y385800
*4979 xofiller!SHFILL1_RVT!x169960y385800
*4980 xofiller!SHFILL1_RVT!x171480y385800
*4981 xofiller!SHFILL1_RVT!x173000y385800
*4982 xofiller!SHFILL1_RVT!x174520y385800
*4983 xofiller!SHFILL1_RVT!x176040y385800
*4984 xofiller!SHFILL1_RVT!x177560y385800
*4985 xofiller!SHFILL1_RVT!x179080y385800
*4986 xofiller!SHFILL1_RVT!x180600y385800
*4987 xofiller!SHFILL1_RVT!x182120y385800
*4988 xofiller!SHFILL1_RVT!x183640y385800
*4989 xofiller!SHFILL1_RVT!x185160y385800
*4990 xofiller!SHFILL1_RVT!x186680y385800
*4991 xofiller!SHFILL1_RVT!x188200y385800
*4992 xofiller!SHFILL1_RVT!x189720y385800
*4993 xofiller!SHFILL1_RVT!x191240y385800
*4994 xofiller!SHFILL1_RVT!x192760y385800
*4995 xofiller!SHFILL1_RVT!x194280y385800
*4996 xofiller!SHFILL1_RVT!x195800y385800
*4997 xofiller!SHFILL1_RVT!x197320y385800
*4998 xofiller!SHFILL1_RVT!x198840y385800
*4999 xofiller!SHFILL1_RVT!x200360y385800
*5000 xofiller!SHFILL1_RVT!x201880y385800
*5001 xofiller!SHFILL1_RVT!x203400y385800
*5002 xofiller!SHFILL1_RVT!x217080y385800
*5003 xofiller!SHFILL1_RVT!x230760y385800
*5004 xofiller!SHFILL1_RVT!x232280y385800
*5005 xofiller!SHFILL1_RVT!x233800y385800
*5006 xofiller!SHFILL1_RVT!x235320y385800
*5007 xofiller!SHFILL1_RVT!x236840y385800
*5008 xofiller!SHFILL1_RVT!x238360y385800
*5009 xofiller!SHFILL1_RVT!x239880y385800
*5010 xofiller!SHFILL1_RVT!x241400y385800
*5011 xofiller!SHFILL1_RVT!x242920y385800
*5012 xofiller!SHFILL1_RVT!x244440y385800
*5013 xofiller!SHFILL1_RVT!x245960y385800
*5014 xofiller!SHFILL1_RVT!x247480y385800
*5015 xofiller!SHFILL1_RVT!x256600y385800
*5016 xofiller!SHFILL1_RVT!x258120y385800
*5017 xofiller!SHFILL1_RVT!x259640y385800
*5018 xofiller!SHFILL1_RVT!x261160y385800
*5019 xofiller!SHFILL1_RVT!x262680y385800
*5020 xofiller!SHFILL1_RVT!x264200y385800
*5021 xofiller!SHFILL1_RVT!x265720y385800
*5022 xofiller!SHFILL1_RVT!x267240y385800
*5023 xofiller!SHFILL1_RVT!x268760y385800
*5024 xofiller!SHFILL1_RVT!x270280y385800
*5025 xofiller!SHFILL1_RVT!x271800y385800
*5026 xofiller!SHFILL1_RVT!x273320y385800
*5027 xofiller!SHFILL1_RVT!x274840y385800
*5028 xofiller!SHFILL1_RVT!x290040y385800
*5029 xofiller!SHFILL1_RVT!x291560y385800
*5030 xofiller!SHFILL1_RVT!x293080y385800
*5031 xofiller!SHFILL1_RVT!x294600y385800
*5032 xofiller!SHFILL1_RVT!x296120y385800
*5033 xofiller!SHFILL1_RVT!x297640y385800
*5034 xofiller!SHFILL1_RVT!x299160y385800
*5035 xofiller!SHFILL1_RVT!x300680y385800
*5036 xofiller!SHFILL1_RVT!x302200y385800
*5037 xofiller!SHFILL1_RVT!x303720y385800
*5038 xofiller!SHFILL1_RVT!x305240y385800
*5039 xofiller!SHFILL1_RVT!x306760y385800
*5040 xofiller!SHFILL1_RVT!x308280y385800
*5041 xofiller!SHFILL1_RVT!x309800y385800
*5042 xofiller!SHFILL1_RVT!x311320y385800
*5043 xofiller!SHFILL1_RVT!x312840y385800
*5044 xofiller!SHFILL1_RVT!x314360y385800
*5045 xofiller!SHFILL1_RVT!x315880y385800
*5046 xofiller!SHFILL1_RVT!x317400y385800
*5047 xofiller!SHFILL1_RVT!x318920y385800
*5048 xofiller!SHFILL1_RVT!x320440y385800
*5049 xofiller!SHFILL1_RVT!x321960y385800
*5050 xofiller!SHFILL1_RVT!x323480y385800
*5051 xofiller!SHFILL1_RVT!x325000y385800
*5052 xofiller!SHFILL1_RVT!x326520y385800
*5053 xofiller!SHFILL1_RVT!x335640y385800
*5054 xofiller!SHFILL1_RVT!x337160y385800
*5055 xofiller!SHFILL1_RVT!x338680y385800
*5056 xofiller!SHFILL1_RVT!x340200y385800
*5057 xofiller!SHFILL1_RVT!x341720y385800
*5058 xofiller!SHFILL1_RVT!x343240y385800
*5059 xofiller!SHFILL1_RVT!x344760y385800
*5060 xofiller!SHFILL1_RVT!x346280y385800
*5061 xofiller!SHFILL1_RVT!x347800y385800
*5062 xofiller!SHFILL1_RVT!x349320y385800
*5063 xofiller!SHFILL1_RVT!x350840y385800
*5064 xofiller!SHFILL1_RVT!x352360y385800
*5065 xofiller!SHFILL1_RVT!x353880y385800
*5066 xofiller!SHFILL1_RVT!x355400y385800
*5067 xofiller!SHFILL1_RVT!x356920y385800
*5068 xofiller!SHFILL1_RVT!x358440y385800
*5069 xofiller!SHFILL1_RVT!x359960y385800
*5070 xofiller!SHFILL1_RVT!x361480y385800
*5071 xofiller!SHFILL1_RVT!x363000y385800
*5072 xofiller!SHFILL1_RVT!x372120y385800
*5073 xofiller!SHFILL1_RVT!x373640y385800
*5074 xofiller!SHFILL1_RVT!x375160y385800
*5075 xofiller!SHFILL1_RVT!x376680y385800
*5076 xofiller!SHFILL1_RVT!x378200y385800
*5077 xofiller!SHFILL1_RVT!x379720y385800
*5078 xofiller!SHFILL1_RVT!x381240y385800
*5079 xofiller!SHFILL1_RVT!x382760y385800
*5080 xofiller!SHFILL1_RVT!x384280y385800
*5081 xofiller!SHFILL1_RVT!x385800y385800
*5082 xofiller!SHFILL1_RVT!x402520y385800
*5083 xofiller!SHFILL1_RVT!x404040y385800
*5084 xofiller!SHFILL1_RVT!x405560y385800
*5085 xofiller!SHFILL1_RVT!x407080y385800
*5086 xofiller!SHFILL1_RVT!x408600y385800
*5087 xofiller!SHFILL1_RVT!x410120y385800
*5088 xofiller!SHFILL1_RVT!x411640y385800
*5089 xofiller!SHFILL1_RVT!x413160y385800
*5090 xofiller!SHFILL1_RVT!x414680y385800
*5091 xofiller!SHFILL1_RVT!x416200y385800
*5092 xofiller!SHFILL1_RVT!x425320y385800
*5093 xofiller!SHFILL1_RVT!x426840y385800
*5094 xofiller!SHFILL1_RVT!x428360y385800
*5095 xofiller!SHFILL1_RVT!x429880y385800
*5096 xofiller!SHFILL1_RVT!x431400y385800
*5097 xofiller!SHFILL1_RVT!x432920y385800
*5098 xofiller!SHFILL1_RVT!x434440y385800
*5099 xofiller!SHFILL1_RVT!x435960y385800
*5100 xofiller!SHFILL1_RVT!x437480y385800
*5101 xofiller!SHFILL1_RVT!x439000y385800
*5102 xofiller!SHFILL1_RVT!x440520y385800
*5103 xofiller!SHFILL1_RVT!x442040y385800
*5104 xofiller!SHFILL1_RVT!x443560y385800
*5105 xofiller!SHFILL1_RVT!x445080y385800
*5106 xofiller!SHFILL1_RVT!x446600y385800
*5107 xofiller!SHFILL1_RVT!x448120y385800
*5108 xofiller!SHFILL1_RVT!x449640y385800
*5109 xofiller!SHFILL1_RVT!x451160y385800
*5110 xofiller!SHFILL1_RVT!x452680y385800
*5111 xofiller!SHFILL1_RVT!x454200y385800
*5112 xofiller!SHFILL1_RVT!x455720y385800
*5113 xofiller!SHFILL1_RVT!x457240y385800
*5114 xofiller!SHFILL1_RVT!x458760y385800
*5115 xofiller!SHFILL1_RVT!x460280y385800
*5116 xofiller!SHFILL1_RVT!x461800y385800
*5117 xofiller!SHFILL1_RVT!x463320y385800
*5118 xofiller!SHFILL1_RVT!x464840y385800
*5119 xofiller!SHFILL1_RVT!x466360y385800
*5120 xofiller!SHFILL1_RVT!x480040y385800
*5121 xofiller!SHFILL1_RVT!x481560y385800
*5122 xofiller!SHFILL1_RVT!x483080y385800
*5123 xofiller!SHFILL1_RVT!x484600y385800
*5124 xofiller!SHFILL1_RVT!x486120y385800
*5125 xofiller!SHFILL1_RVT!x487640y385800
*5126 xofiller!SHFILL1_RVT!x489160y385800
*5127 xofiller!SHFILL1_RVT!x490680y385800
*5128 xofiller!SHFILL1_RVT!x492200y385800
*5129 xofiller!SHFILL1_RVT!x493720y385800
*5130 xofiller!SHFILL1_RVT!x495240y385800
*5131 xofiller!SHFILL1_RVT!x496760y385800
*5132 xofiller!SHFILL1_RVT!x498280y385800
*5133 xofiller!SHFILL1_RVT!x499800y385800
*5134 xofiller!SHFILL1_RVT!x501320y385800
*5135 xofiller!SHFILL1_RVT!x502840y385800
*5136 xofiller!SHFILL1_RVT!x504360y385800
*5137 xofiller!SHFILL1_RVT!x505880y385800
*5138 xofiller!SHFILL1_RVT!x507400y385800
*5139 xofiller!SHFILL1_RVT!x508920y385800
*5140 xofiller!SHFILL1_RVT!x519560y385800
*5141 xofiller!SHFILL1_RVT!x521080y385800
*5142 xofiller!SHFILL1_RVT!x522600y385800
*5143 xofiller!SHFILL1_RVT!x524120y385800
*5144 xofiller!SHFILL1_RVT!x525640y385800
*5145 xofiller!SHFILL1_RVT!x527160y385800
*5146 xofiller!SHFILL1_RVT!x528680y385800
*5147 xofiller!SHFILL1_RVT!x530200y385800
*5148 xofiller!SHFILL1_RVT!x531720y385800
*5149 xofiller!SHFILL1_RVT!x533240y385800
*5150 xofiller!SHFILL1_RVT!x534760y385800
*5151 xofiller!SHFILL1_RVT!x536280y385800
*5152 xofiller!SHFILL1_RVT!x537800y385800
*5153 xofiller!SHFILL1_RVT!x539320y385800
*5154 xofiller!SHFILL1_RVT!x540840y385800
*5155 xofiller!SHFILL1_RVT!x542360y385800
*5156 xofiller!SHFILL1_RVT!x543880y385800
*5157 xofiller!SHFILL1_RVT!x545400y385800
*5158 xofiller!SHFILL1_RVT!x546920y385800
*5159 xofiller!SHFILL1_RVT!x548440y385800
*5160 xofiller!SHFILL1_RVT!x549960y385800
*5161 xofiller!SHFILL1_RVT!x551480y385800
*5162 xofiller!SHFILL1_RVT!x553000y385800
*5163 xofiller!SHFILL1_RVT!x554520y385800
*5164 xofiller!SHFILL1_RVT!x556040y385800
*5165 xofiller!SHFILL1_RVT!x557560y385800
*5166 xofiller!SHFILL1_RVT!x559080y385800
*5167 xofiller!SHFILL1_RVT!x560600y385800
*5168 xofiller!SHFILL1_RVT!x562120y385800
*5169 xofiller!SHFILL1_RVT!x563640y385800
*5170 xofiller!SHFILL1_RVT!x565160y385800
*5171 xofiller!SHFILL1_RVT!x566680y385800
*5172 xofiller!SHFILL1_RVT!x568200y385800
*5173 xofiller!SHFILL1_RVT!x569720y385800
*5174 xofiller!SHFILL1_RVT!x571240y385800
*5175 xofiller!SHFILL1_RVT!x572760y385800
*5176 xofiller!SHFILL1_RVT!x574280y385800
*5177 xofiller!SHFILL1_RVT!x587960y385800
*5178 xofiller!SHFILL1_RVT!x589480y385800
*5179 xofiller!SHFILL1_RVT!x591000y385800
*5180 xofiller!SHFILL1_RVT!x592520y385800
*5181 xofiller!SHFILL1_RVT!x594040y385800
*5182 xofiller!SHFILL1_RVT!x595560y385800
*5183 xofiller!SHFILL1_RVT!x597080y385800
*5184 xofiller!SHFILL1_RVT!x598600y385800
*5185 xofiller!SHFILL1_RVT!x600120y385800
*5186 xofiller!SHFILL1_RVT!x601640y385800
*5187 xofiller!SHFILL1_RVT!x603160y385800
*5188 xofiller!SHFILL1_RVT!x604680y385800
*5189 xofiller!SHFILL1_RVT!x606200y385800
*5190 xofiller!SHFILL1_RVT!x607720y385800
*5191 xofiller!SHFILL1_RVT!x609240y385800
*5192 xofiller!SHFILL1_RVT!x610760y385800
*5193 xofiller!SHFILL1_RVT!x612280y385800
*5194 xofiller!SHFILL1_RVT!x613800y385800
*5195 xofiller!SHFILL1_RVT!x615320y385800
*5196 xofiller!SHFILL1_RVT!x616840y385800
*5197 xofiller!SHFILL1_RVT!x618360y385800
*5198 xofiller!SHFILL1_RVT!x619880y385800
*5199 xofiller!SHFILL1_RVT!x621400y385800
*5200 xofiller!SHFILL1_RVT!x622920y385800
*5201 xofiller!SHFILL1_RVT!x624440y385800
*5202 xofiller!SHFILL1_RVT!x625960y385800
*5203 xofiller!SHFILL1_RVT!x627480y385800
*5204 xofiller!SHFILL1_RVT!x629000y385800
*5205 xofiller!SHFILL1_RVT!x630520y385800
*5206 xofiller!SHFILL1_RVT!x632040y385800
*5207 xofiller!SHFILL1_RVT!x633560y385800
*5208 xofiller!SHFILL1_RVT!x635080y385800
*5209 xofiller!SHFILL1_RVT!x636600y385800
*5210 xofiller!SHFILL1_RVT!x638120y385800
*5211 xofiller!SHFILL1_RVT!x639640y385800
*5212 xofiller!SHFILL1_RVT!x641160y385800
*5213 xofiller!SHFILL1_RVT!x642680y385800
*5214 xofiller!SHFILL1_RVT!x644200y385800
*5215 xofiller!SHFILL1_RVT!x688280y385800
*5216 xofiller!SHFILL1_RVT!x689800y385800
*5217 xofiller!SHFILL1_RVT!x691320y385800
*5218 xofiller!SHFILL1_RVT!x692840y385800
*5219 xofiller!SHFILL1_RVT!x694360y385800
*5220 xofiller!SHFILL1_RVT!x695880y385800
*5221 xofiller!SHFILL1_RVT!x697400y385800
*5222 xofiller!SHFILL1_RVT!x698920y385800
*5223 xofiller!SHFILL1_RVT!x700440y385800
*5224 xofiller!SHFILL1_RVT!x701960y385800
*5225 xofiller!SHFILL1_RVT!x703480y385800
*5226 xofiller!SHFILL1_RVT!x705000y385800
*5227 xofiller!SHFILL1_RVT!x706520y385800
*5228 xofiller!SHFILL1_RVT!x708040y385800
*5229 xofiller!SHFILL1_RVT!x709560y385800
*5230 xofiller!SHFILL1_RVT!x711080y385800
*5231 xofiller!SHFILL1_RVT!x712600y385800
*5232 xofiller!SHFILL1_RVT!x714120y385800
*5233 xofiller!SHFILL1_RVT!x715640y385800
*5234 xofiller!SHFILL1_RVT!x717160y385800
*5235 xofiller!SHFILL1_RVT!x718680y385800
*5236 xofiller!SHFILL1_RVT!x720200y385800
*5237 xofiller!SHFILL1_RVT!x721720y385800
*5238 xofiller!SHFILL1_RVT!x723240y385800
*5239 xofiller!SHFILL1_RVT!x724760y385800
*5240 xofiller!SHFILL1_RVT!x726280y385800
*5241 xofiller!SHFILL1_RVT!x727800y385800
*5242 xofiller!SHFILL1_RVT!x729320y385800
*5243 xofiller!SHFILL1_RVT!x730840y385800
*5244 xofiller!SHFILL1_RVT!x732360y385800
*5245 xofiller!SHFILL1_RVT!x733880y385800
*5246 xofiller!SHFILL1_RVT!x735400y385800
*5247 xofiller!SHFILL1_RVT!x736920y385800
*5248 xofiller!SHFILL1_RVT!x738440y385800
*5249 xofiller!SHFILL1_RVT!x739960y385800
*5250 xofiller!SHFILL1_RVT!x741480y385800
*5251 xofiller!SHFILL1_RVT!x743000y385800
*5252 xofiller!SHFILL1_RVT!x744520y385800
*5253 xofiller!SHFILL1_RVT!x135000y402520
*5254 xofiller!SHFILL1_RVT!x136520y402520
*5255 xofiller!SHFILL1_RVT!x138040y402520
*5256 xofiller!SHFILL1_RVT!x139560y402520
*5257 xofiller!SHFILL1_RVT!x141080y402520
*5258 xofiller!SHFILL1_RVT!x142600y402520
*5259 xofiller!SHFILL1_RVT!x144120y402520
*5260 xofiller!SHFILL1_RVT!x145640y402520
*5261 xofiller!SHFILL1_RVT!x147160y402520
*5262 xofiller!SHFILL1_RVT!x148680y402520
*5263 xofiller!SHFILL1_RVT!x150200y402520
*5264 xofiller!SHFILL1_RVT!x151720y402520
*5265 xofiller!SHFILL1_RVT!x153240y402520
*5266 xofiller!SHFILL1_RVT!x154760y402520
*5267 xofiller!SHFILL1_RVT!x156280y402520
*5268 xofiller!SHFILL1_RVT!x157800y402520
*5269 xofiller!SHFILL1_RVT!x166920y402520
*5270 xofiller!SHFILL1_RVT!x168440y402520
*5271 xofiller!SHFILL1_RVT!x169960y402520
*5272 xofiller!SHFILL1_RVT!x171480y402520
*5273 xofiller!SHFILL1_RVT!x173000y402520
*5274 xofiller!SHFILL1_RVT!x174520y402520
*5275 xofiller!SHFILL1_RVT!x176040y402520
*5276 xofiller!SHFILL1_RVT!x223160y402520
*5277 xofiller!SHFILL1_RVT!x224680y402520
*5278 xofiller!SHFILL1_RVT!x226200y402520
*5279 xofiller!SHFILL1_RVT!x227720y402520
*5280 xofiller!SHFILL1_RVT!x229240y402520
*5281 xofiller!SHFILL1_RVT!x230760y402520
*5282 xofiller!SHFILL1_RVT!x232280y402520
*5283 xofiller!SHFILL1_RVT!x233800y402520
*5284 xofiller!SHFILL1_RVT!x235320y402520
*5285 xofiller!SHFILL1_RVT!x236840y402520
*5286 xofiller!SHFILL1_RVT!x238360y402520
*5287 xofiller!SHFILL1_RVT!x239880y402520
*5288 xofiller!SHFILL1_RVT!x241400y402520
*5289 xofiller!SHFILL1_RVT!x242920y402520
*5290 xofiller!SHFILL1_RVT!x244440y402520
*5291 xofiller!SHFILL1_RVT!x245960y402520
*5292 xofiller!SHFILL1_RVT!x247480y402520
*5293 xofiller!SHFILL1_RVT!x249000y402520
*5294 xofiller!SHFILL1_RVT!x250520y402520
*5295 xofiller!SHFILL1_RVT!x252040y402520
*5296 xofiller!SHFILL1_RVT!x253560y402520
*5297 xofiller!SHFILL1_RVT!x255080y402520
*5298 xofiller!SHFILL1_RVT!x256600y402520
*5299 xofiller!SHFILL1_RVT!x258120y402520
*5300 xofiller!SHFILL1_RVT!x259640y402520
*5301 xofiller!SHFILL1_RVT!x261160y402520
*5302 xofiller!SHFILL1_RVT!x262680y402520
*5303 xofiller!SHFILL1_RVT!x264200y402520
*5304 xofiller!SHFILL1_RVT!x280920y402520
*5305 xofiller!SHFILL1_RVT!x282440y402520
*5306 xofiller!SHFILL1_RVT!x283960y402520
*5307 xofiller!SHFILL1_RVT!x285480y402520
*5308 xofiller!SHFILL1_RVT!x287000y402520
*5309 xofiller!SHFILL1_RVT!x288520y402520
*5310 xofiller!SHFILL1_RVT!x290040y402520
*5311 xofiller!SHFILL1_RVT!x291560y402520
*5312 xofiller!SHFILL1_RVT!x293080y402520
*5313 xofiller!SHFILL1_RVT!x306760y402520
*5314 xofiller!SHFILL1_RVT!x308280y402520
*5315 xofiller!SHFILL1_RVT!x309800y402520
*5316 xofiller!SHFILL1_RVT!x311320y402520
*5317 xofiller!SHFILL1_RVT!x312840y402520
*5318 xofiller!SHFILL1_RVT!x326520y402520
*5319 xofiller!SHFILL1_RVT!x328040y402520
*5320 xofiller!SHFILL1_RVT!x329560y402520
*5321 xofiller!SHFILL1_RVT!x331080y402520
*5322 xofiller!SHFILL1_RVT!x332600y402520
*5323 xofiller!SHFILL1_RVT!x334120y402520
*5324 xofiller!SHFILL1_RVT!x335640y402520
*5325 xofiller!SHFILL1_RVT!x337160y402520
*5326 xofiller!SHFILL1_RVT!x338680y402520
*5327 xofiller!SHFILL1_RVT!x340200y402520
*5328 xofiller!SHFILL1_RVT!x356920y402520
*5329 xofiller!SHFILL1_RVT!x358440y402520
*5330 xofiller!SHFILL1_RVT!x359960y402520
*5331 xofiller!SHFILL1_RVT!x361480y402520
*5332 xofiller!SHFILL1_RVT!x363000y402520
*5333 xofiller!SHFILL1_RVT!x364520y402520
*5334 xofiller!SHFILL1_RVT!x366040y402520
*5335 xofiller!SHFILL1_RVT!x367560y402520
*5336 xofiller!SHFILL1_RVT!x369080y402520
*5337 xofiller!SHFILL1_RVT!x370600y402520
*5338 xofiller!SHFILL1_RVT!x372120y402520
*5339 xofiller!SHFILL1_RVT!x373640y402520
*5340 xofiller!SHFILL1_RVT!x375160y402520
*5341 xofiller!SHFILL1_RVT!x376680y402520
*5342 xofiller!SHFILL1_RVT!x378200y402520
*5343 xofiller!SHFILL1_RVT!x379720y402520
*5344 xofiller!SHFILL1_RVT!x381240y402520
*5345 xofiller!SHFILL1_RVT!x382760y402520
*5346 xofiller!SHFILL1_RVT!x384280y402520
*5347 xofiller!SHFILL1_RVT!x410120y402520
*5348 xofiller!SHFILL1_RVT!x411640y402520
*5349 xofiller!SHFILL1_RVT!x413160y402520
*5350 xofiller!SHFILL1_RVT!x414680y402520
*5351 xofiller!SHFILL1_RVT!x416200y402520
*5352 xofiller!SHFILL1_RVT!x417720y402520
*5353 xofiller!SHFILL1_RVT!x419240y402520
*5354 xofiller!SHFILL1_RVT!x420760y402520
*5355 xofiller!SHFILL1_RVT!x422280y402520
*5356 xofiller!SHFILL1_RVT!x423800y402520
*5357 xofiller!SHFILL1_RVT!x425320y402520
*5358 xofiller!SHFILL1_RVT!x426840y402520
*5359 xofiller!SHFILL1_RVT!x428360y402520
*5360 xofiller!SHFILL1_RVT!x429880y402520
*5361 xofiller!SHFILL1_RVT!x431400y402520
*5362 xofiller!SHFILL1_RVT!x432920y402520
*5363 xofiller!SHFILL1_RVT!x434440y402520
*5364 xofiller!SHFILL1_RVT!x448120y402520
*5365 xofiller!SHFILL1_RVT!x449640y402520
*5366 xofiller!SHFILL1_RVT!x451160y402520
*5367 xofiller!SHFILL1_RVT!x452680y402520
*5368 xofiller!SHFILL1_RVT!x454200y402520
*5369 xofiller!SHFILL1_RVT!x498280y402520
*5370 xofiller!SHFILL1_RVT!x499800y402520
*5371 xofiller!SHFILL1_RVT!x501320y402520
*5372 xofiller!SHFILL1_RVT!x502840y402520
*5373 xofiller!SHFILL1_RVT!x504360y402520
*5374 xofiller!SHFILL1_RVT!x505880y402520
*5375 xofiller!SHFILL1_RVT!x507400y402520
*5376 xofiller!SHFILL1_RVT!x508920y402520
*5377 xofiller!SHFILL1_RVT!x510440y402520
*5378 xofiller!SHFILL1_RVT!x511960y402520
*5379 xofiller!SHFILL1_RVT!x513480y402520
*5380 xofiller!SHFILL1_RVT!x515000y402520
*5381 xofiller!SHFILL1_RVT!x516520y402520
*5382 xofiller!SHFILL1_RVT!x518040y402520
*5383 xofiller!SHFILL1_RVT!x519560y402520
*5384 xofiller!SHFILL1_RVT!x521080y402520
*5385 xofiller!SHFILL1_RVT!x522600y402520
*5386 xofiller!SHFILL1_RVT!x524120y402520
*5387 xofiller!SHFILL1_RVT!x525640y402520
*5388 xofiller!SHFILL1_RVT!x527160y402520
*5389 xofiller!SHFILL1_RVT!x528680y402520
*5390 xofiller!SHFILL1_RVT!x530200y402520
*5391 xofiller!SHFILL1_RVT!x531720y402520
*5392 xofiller!SHFILL1_RVT!x533240y402520
*5393 xofiller!SHFILL1_RVT!x534760y402520
*5394 xofiller!SHFILL1_RVT!x536280y402520
*5395 xofiller!SHFILL1_RVT!x537800y402520
*5396 xofiller!SHFILL1_RVT!x539320y402520
*5397 xofiller!SHFILL1_RVT!x540840y402520
*5398 xofiller!SHFILL1_RVT!x542360y402520
*5399 xofiller!SHFILL1_RVT!x543880y402520
*5400 xofiller!SHFILL1_RVT!x545400y402520
*5401 xofiller!SHFILL1_RVT!x546920y402520
*5402 xofiller!SHFILL1_RVT!x548440y402520
*5403 xofiller!SHFILL1_RVT!x549960y402520
*5404 xofiller!SHFILL1_RVT!x551480y402520
*5405 xofiller!SHFILL1_RVT!x553000y402520
*5406 xofiller!SHFILL1_RVT!x554520y402520
*5407 xofiller!SHFILL1_RVT!x571240y402520
*5408 xofiller!SHFILL1_RVT!x572760y402520
*5409 xofiller!SHFILL1_RVT!x574280y402520
*5410 xofiller!SHFILL1_RVT!x575800y402520
*5411 xofiller!SHFILL1_RVT!x577320y402520
*5412 xofiller!SHFILL1_RVT!x578840y402520
*5413 xofiller!SHFILL1_RVT!x580360y402520
*5414 xofiller!SHFILL1_RVT!x581880y402520
*5415 xofiller!SHFILL1_RVT!x583400y402520
*5416 xofiller!SHFILL1_RVT!x584920y402520
*5417 xofiller!SHFILL1_RVT!x586440y402520
*5418 xofiller!SHFILL1_RVT!x587960y402520
*5419 xofiller!SHFILL1_RVT!x589480y402520
*5420 xofiller!SHFILL1_RVT!x591000y402520
*5421 xofiller!SHFILL1_RVT!x592520y402520
*5422 xofiller!SHFILL1_RVT!x594040y402520
*5423 xofiller!SHFILL1_RVT!x595560y402520
*5424 xofiller!SHFILL1_RVT!x597080y402520
*5425 xofiller!SHFILL1_RVT!x598600y402520
*5426 xofiller!SHFILL1_RVT!x600120y402520
*5427 xofiller!SHFILL1_RVT!x601640y402520
*5428 xofiller!SHFILL1_RVT!x603160y402520
*5429 xofiller!SHFILL1_RVT!x604680y402520
*5430 xofiller!SHFILL1_RVT!x606200y402520
*5431 xofiller!SHFILL1_RVT!x607720y402520
*5432 xofiller!SHFILL1_RVT!x609240y402520
*5433 xofiller!SHFILL1_RVT!x610760y402520
*5434 xofiller!SHFILL1_RVT!x612280y402520
*5435 xofiller!SHFILL1_RVT!x613800y402520
*5436 xofiller!SHFILL1_RVT!x615320y402520
*5437 xofiller!SHFILL1_RVT!x616840y402520
*5438 xofiller!SHFILL1_RVT!x618360y402520
*5439 xofiller!SHFILL1_RVT!x619880y402520
*5440 xofiller!SHFILL1_RVT!x621400y402520
*5441 xofiller!SHFILL1_RVT!x622920y402520
*5442 xofiller!SHFILL1_RVT!x624440y402520
*5443 xofiller!SHFILL1_RVT!x625960y402520
*5444 xofiller!SHFILL1_RVT!x627480y402520
*5445 xofiller!SHFILL1_RVT!x644200y402520
*5446 xofiller!SHFILL1_RVT!x645720y402520
*5447 xofiller!SHFILL1_RVT!x647240y402520
*5448 xofiller!SHFILL1_RVT!x648760y402520
*5449 xofiller!SHFILL1_RVT!x650280y402520
*5450 xofiller!SHFILL1_RVT!x651800y402520
*5451 xofiller!SHFILL1_RVT!x653320y402520
*5452 xofiller!SHFILL1_RVT!x654840y402520
*5453 xofiller!SHFILL1_RVT!x656360y402520
*5454 xofiller!SHFILL1_RVT!x657880y402520
*5455 xofiller!SHFILL1_RVT!x659400y402520
*5456 xofiller!SHFILL1_RVT!x660920y402520
*5457 xofiller!SHFILL1_RVT!x662440y402520
*5458 xofiller!SHFILL1_RVT!x663960y402520
*5459 xofiller!SHFILL1_RVT!x665480y402520
*5460 xofiller!SHFILL1_RVT!x667000y402520
*5461 xofiller!SHFILL1_RVT!x668520y402520
*5462 xofiller!SHFILL1_RVT!x670040y402520
*5463 xofiller!SHFILL1_RVT!x671560y402520
*5464 xofiller!SHFILL1_RVT!x673080y402520
*5465 xofiller!SHFILL1_RVT!x674600y402520
*5466 xofiller!SHFILL1_RVT!x676120y402520
*5467 xofiller!SHFILL1_RVT!x677640y402520
*5468 xofiller!SHFILL1_RVT!x679160y402520
*5469 xofiller!SHFILL1_RVT!x680680y402520
*5470 xofiller!SHFILL1_RVT!x682200y402520
*5471 xofiller!SHFILL1_RVT!x683720y402520
*5472 xofiller!SHFILL1_RVT!x685240y402520
*5473 xofiller!SHFILL1_RVT!x686760y402520
*5474 xofiller!SHFILL1_RVT!x688280y402520
*5475 xofiller!SHFILL1_RVT!x689800y402520
*5476 xofiller!SHFILL1_RVT!x691320y402520
*5477 xofiller!SHFILL1_RVT!x692840y402520
*5478 xofiller!SHFILL1_RVT!x694360y402520
*5479 xofiller!SHFILL1_RVT!x695880y402520
*5480 xofiller!SHFILL1_RVT!x697400y402520
*5481 xofiller!SHFILL1_RVT!x706520y402520
*5482 xofiller!SHFILL1_RVT!x708040y402520
*5483 xofiller!SHFILL1_RVT!x709560y402520
*5484 xofiller!SHFILL1_RVT!x711080y402520
*5485 xofiller!SHFILL1_RVT!x712600y402520
*5486 xofiller!SHFILL1_RVT!x714120y402520
*5487 xofiller!SHFILL1_RVT!x715640y402520
*5488 xofiller!SHFILL1_RVT!x717160y402520
*5489 xofiller!SHFILL1_RVT!x718680y402520
*5490 xofiller!SHFILL1_RVT!x720200y402520
*5491 xofiller!SHFILL1_RVT!x721720y402520
*5492 xofiller!SHFILL1_RVT!x723240y402520
*5493 xofiller!SHFILL1_RVT!x724760y402520
*5494 xofiller!SHFILL1_RVT!x726280y402520
*5495 xofiller!SHFILL1_RVT!x727800y402520
*5496 xofiller!SHFILL1_RVT!x729320y402520
*5497 xofiller!SHFILL1_RVT!x730840y402520
*5498 xofiller!SHFILL1_RVT!x732360y402520
*5499 xofiller!SHFILL1_RVT!x733880y402520
*5500 xofiller!SHFILL1_RVT!x735400y402520
*5501 xofiller!SHFILL1_RVT!x736920y402520
*5502 xofiller!SHFILL1_RVT!x738440y402520
*5503 xofiller!SHFILL1_RVT!x739960y402520
*5504 xofiller!SHFILL1_RVT!x741480y402520
*5505 xofiller!SHFILL1_RVT!x743000y402520
*5506 xofiller!SHFILL1_RVT!x744520y402520
*5507 xofiller!SHFILL1_RVT!x135000y419240
*5508 xofiller!SHFILL1_RVT!x136520y419240
*5509 xofiller!SHFILL1_RVT!x138040y419240
*5510 xofiller!SHFILL1_RVT!x139560y419240
*5511 xofiller!SHFILL1_RVT!x141080y419240
*5512 xofiller!SHFILL1_RVT!x142600y419240
*5513 xofiller!SHFILL1_RVT!x144120y419240
*5514 xofiller!SHFILL1_RVT!x145640y419240
*5515 xofiller!SHFILL1_RVT!x147160y419240
*5516 xofiller!SHFILL1_RVT!x148680y419240
*5517 xofiller!SHFILL1_RVT!x150200y419240
*5518 xofiller!SHFILL1_RVT!x151720y419240
*5519 xofiller!SHFILL1_RVT!x153240y419240
*5520 xofiller!SHFILL1_RVT!x154760y419240
*5521 xofiller!SHFILL1_RVT!x156280y419240
*5522 xofiller!SHFILL1_RVT!x157800y419240
*5523 xofiller!SHFILL1_RVT!x159320y419240
*5524 xofiller!SHFILL1_RVT!x160840y419240
*5525 xofiller!SHFILL1_RVT!x162360y419240
*5526 xofiller!SHFILL1_RVT!x163880y419240
*5527 xofiller!SHFILL1_RVT!x165400y419240
*5528 xofiller!SHFILL1_RVT!x166920y419240
*5529 xofiller!SHFILL1_RVT!x168440y419240
*5530 xofiller!SHFILL1_RVT!x169960y419240
*5531 xofiller!SHFILL1_RVT!x171480y419240
*5532 xofiller!SHFILL1_RVT!x173000y419240
*5533 xofiller!SHFILL1_RVT!x174520y419240
*5534 xofiller!SHFILL1_RVT!x176040y419240
*5535 xofiller!SHFILL1_RVT!x177560y419240
*5536 xofiller!SHFILL1_RVT!x179080y419240
*5537 xofiller!SHFILL1_RVT!x180600y419240
*5538 xofiller!SHFILL1_RVT!x197320y419240
*5539 xofiller!SHFILL1_RVT!x198840y419240
*5540 xofiller!SHFILL1_RVT!x200360y419240
*5541 xofiller!SHFILL1_RVT!x201880y419240
*5542 xofiller!SHFILL1_RVT!x203400y419240
*5543 xofiller!SHFILL1_RVT!x204920y419240
*5544 xofiller!SHFILL1_RVT!x206440y419240
*5545 xofiller!SHFILL1_RVT!x207960y419240
*5546 xofiller!SHFILL1_RVT!x209480y419240
*5547 xofiller!SHFILL1_RVT!x211000y419240
*5548 xofiller!SHFILL1_RVT!x212520y419240
*5549 xofiller!SHFILL1_RVT!x214040y419240
*5550 xofiller!SHFILL1_RVT!x215560y419240
*5551 xofiller!SHFILL1_RVT!x217080y419240
*5552 xofiller!SHFILL1_RVT!x218600y419240
*5553 xofiller!SHFILL1_RVT!x220120y419240
*5554 xofiller!SHFILL1_RVT!x221640y419240
*5555 xofiller!SHFILL1_RVT!x235320y419240
*5556 xofiller!SHFILL1_RVT!x236840y419240
*5557 xofiller!SHFILL1_RVT!x238360y419240
*5558 xofiller!SHFILL1_RVT!x239880y419240
*5559 xofiller!SHFILL1_RVT!x253560y419240
*5560 xofiller!SHFILL1_RVT!x255080y419240
*5561 xofiller!SHFILL1_RVT!x256600y419240
*5562 xofiller!SHFILL1_RVT!x258120y419240
*5563 xofiller!SHFILL1_RVT!x259640y419240
*5564 xofiller!SHFILL1_RVT!x261160y419240
*5565 xofiller!SHFILL1_RVT!x262680y419240
*5566 xofiller!SHFILL1_RVT!x264200y419240
*5567 xofiller!SHFILL1_RVT!x265720y419240
*5568 xofiller!SHFILL1_RVT!x267240y419240
*5569 xofiller!SHFILL1_RVT!x268760y419240
*5570 xofiller!SHFILL1_RVT!x270280y419240
*5571 xofiller!SHFILL1_RVT!x271800y419240
*5572 xofiller!SHFILL1_RVT!x273320y419240
*5573 xofiller!SHFILL1_RVT!x274840y419240
*5574 xofiller!SHFILL1_RVT!x276360y419240
*5575 xofiller!SHFILL1_RVT!x277880y419240
*5576 xofiller!SHFILL1_RVT!x279400y419240
*5577 xofiller!SHFILL1_RVT!x280920y419240
*5578 xofiller!SHFILL1_RVT!x282440y419240
*5579 xofiller!SHFILL1_RVT!x283960y419240
*5580 xofiller!SHFILL1_RVT!x285480y419240
*5581 xofiller!SHFILL1_RVT!x287000y419240
*5582 xofiller!SHFILL1_RVT!x288520y419240
*5583 xofiller!SHFILL1_RVT!x290040y419240
*5584 xofiller!SHFILL1_RVT!x291560y419240
*5585 xofiller!SHFILL1_RVT!x293080y419240
*5586 xofiller!SHFILL1_RVT!x309800y419240
*5587 xofiller!SHFILL1_RVT!x311320y419240
*5588 xofiller!SHFILL1_RVT!x312840y419240
*5589 xofiller!SHFILL1_RVT!x314360y419240
*5590 xofiller!SHFILL1_RVT!x315880y419240
*5591 xofiller!SHFILL1_RVT!x317400y419240
*5592 xofiller!SHFILL1_RVT!x318920y419240
*5593 xofiller!SHFILL1_RVT!x320440y419240
*5594 xofiller!SHFILL1_RVT!x321960y419240
*5595 xofiller!SHFILL1_RVT!x323480y419240
*5596 xofiller!SHFILL1_RVT!x325000y419240
*5597 xofiller!SHFILL1_RVT!x326520y419240
*5598 xofiller!SHFILL1_RVT!x328040y419240
*5599 xofiller!SHFILL1_RVT!x329560y419240
*5600 xofiller!SHFILL1_RVT!x331080y419240
*5601 xofiller!SHFILL1_RVT!x332600y419240
*5602 xofiller!SHFILL1_RVT!x334120y419240
*5603 xofiller!SHFILL1_RVT!x335640y419240
*5604 xofiller!SHFILL1_RVT!x337160y419240
*5605 xofiller!SHFILL1_RVT!x338680y419240
*5606 xofiller!SHFILL1_RVT!x340200y419240
*5607 xofiller!SHFILL1_RVT!x341720y419240
*5608 xofiller!SHFILL1_RVT!x343240y419240
*5609 xofiller!SHFILL1_RVT!x344760y419240
*5610 xofiller!SHFILL1_RVT!x346280y419240
*5611 xofiller!SHFILL1_RVT!x347800y419240
*5612 xofiller!SHFILL1_RVT!x364520y419240
*5613 xofiller!SHFILL1_RVT!x366040y419240
*5614 xofiller!SHFILL1_RVT!x367560y419240
*5615 xofiller!SHFILL1_RVT!x369080y419240
*5616 xofiller!SHFILL1_RVT!x370600y419240
*5617 xofiller!SHFILL1_RVT!x372120y419240
*5618 xofiller!SHFILL1_RVT!x373640y419240
*5619 xofiller!SHFILL1_RVT!x375160y419240
*5620 xofiller!SHFILL1_RVT!x376680y419240
*5621 xofiller!SHFILL1_RVT!x378200y419240
*5622 xofiller!SHFILL1_RVT!x394920y419240
*5623 xofiller!SHFILL1_RVT!x396440y419240
*5624 xofiller!SHFILL1_RVT!x397960y419240
*5625 xofiller!SHFILL1_RVT!x399480y419240
*5626 xofiller!SHFILL1_RVT!x401000y419240
*5627 xofiller!SHFILL1_RVT!x402520y419240
*5628 xofiller!SHFILL1_RVT!x404040y419240
*5629 xofiller!SHFILL1_RVT!x405560y419240
*5630 xofiller!SHFILL1_RVT!x407080y419240
*5631 xofiller!SHFILL1_RVT!x408600y419240
*5632 xofiller!SHFILL1_RVT!x422280y419240
*5633 xofiller!SHFILL1_RVT!x423800y419240
*5634 xofiller!SHFILL1_RVT!x425320y419240
*5635 xofiller!SHFILL1_RVT!x426840y419240
*5636 xofiller!SHFILL1_RVT!x428360y419240
*5637 xofiller!SHFILL1_RVT!x429880y419240
*5638 xofiller!SHFILL1_RVT!x431400y419240
*5639 xofiller!SHFILL1_RVT!x432920y419240
*5640 xofiller!SHFILL1_RVT!x434440y419240
*5641 xofiller!SHFILL1_RVT!x435960y419240
*5642 xofiller!SHFILL1_RVT!x437480y419240
*5643 xofiller!SHFILL1_RVT!x439000y419240
*5644 xofiller!SHFILL1_RVT!x440520y419240
*5645 xofiller!SHFILL1_RVT!x442040y419240
*5646 xofiller!SHFILL1_RVT!x443560y419240
*5647 xofiller!SHFILL1_RVT!x445080y419240
*5648 xofiller!SHFILL1_RVT!x446600y419240
*5649 xofiller!SHFILL1_RVT!x448120y419240
*5650 xofiller!SHFILL1_RVT!x449640y419240
*5651 xofiller!SHFILL1_RVT!x451160y419240
*5652 xofiller!SHFILL1_RVT!x452680y419240
*5653 xofiller!SHFILL1_RVT!x454200y419240
*5654 xofiller!SHFILL1_RVT!x455720y419240
*5655 xofiller!SHFILL1_RVT!x457240y419240
*5656 xofiller!SHFILL1_RVT!x458760y419240
*5657 xofiller!SHFILL1_RVT!x460280y419240
*5658 xofiller!SHFILL1_RVT!x461800y419240
*5659 xofiller!SHFILL1_RVT!x463320y419240
*5660 xofiller!SHFILL1_RVT!x464840y419240
*5661 xofiller!SHFILL1_RVT!x466360y419240
*5662 xofiller!SHFILL1_RVT!x467880y419240
*5663 xofiller!SHFILL1_RVT!x469400y419240
*5664 xofiller!SHFILL1_RVT!x470920y419240
*5665 xofiller!SHFILL1_RVT!x472440y419240
*5666 xofiller!SHFILL1_RVT!x473960y419240
*5667 xofiller!SHFILL1_RVT!x475480y419240
*5668 xofiller!SHFILL1_RVT!x477000y419240
*5669 xofiller!SHFILL1_RVT!x478520y419240
*5670 xofiller!SHFILL1_RVT!x480040y419240
*5671 xofiller!SHFILL1_RVT!x481560y419240
*5672 xofiller!SHFILL1_RVT!x483080y419240
*5673 xofiller!SHFILL1_RVT!x484600y419240
*5674 xofiller!SHFILL1_RVT!x486120y419240
*5675 xofiller!SHFILL1_RVT!x508920y419240
*5676 xofiller!SHFILL1_RVT!x510440y419240
*5677 xofiller!SHFILL1_RVT!x528680y419240
*5678 xofiller!SHFILL1_RVT!x530200y419240
*5679 xofiller!SHFILL1_RVT!x531720y419240
*5680 xofiller!SHFILL1_RVT!x533240y419240
*5681 xofiller!SHFILL1_RVT!x534760y419240
*5682 xofiller!SHFILL1_RVT!x536280y419240
*5683 xofiller!SHFILL1_RVT!x537800y419240
*5684 xofiller!SHFILL1_RVT!x539320y419240
*5685 xofiller!SHFILL1_RVT!x540840y419240
*5686 xofiller!SHFILL1_RVT!x542360y419240
*5687 xofiller!SHFILL1_RVT!x543880y419240
*5688 xofiller!SHFILL1_RVT!x545400y419240
*5689 xofiller!SHFILL1_RVT!x546920y419240
*5690 xofiller!SHFILL1_RVT!x548440y419240
*5691 xofiller!SHFILL1_RVT!x549960y419240
*5692 xofiller!SHFILL1_RVT!x551480y419240
*5693 xofiller!SHFILL1_RVT!x553000y419240
*5694 xofiller!SHFILL1_RVT!x554520y419240
*5695 xofiller!SHFILL1_RVT!x556040y419240
*5696 xofiller!SHFILL1_RVT!x557560y419240
*5697 xofiller!SHFILL1_RVT!x559080y419240
*5698 xofiller!SHFILL1_RVT!x560600y419240
*5699 xofiller!SHFILL1_RVT!x562120y419240
*5700 xofiller!SHFILL1_RVT!x563640y419240
*5701 xofiller!SHFILL1_RVT!x565160y419240
*5702 xofiller!SHFILL1_RVT!x566680y419240
*5703 xofiller!SHFILL1_RVT!x568200y419240
*5704 xofiller!SHFILL1_RVT!x569720y419240
*5705 xofiller!SHFILL1_RVT!x571240y419240
*5706 xofiller!SHFILL1_RVT!x572760y419240
*5707 xofiller!SHFILL1_RVT!x574280y419240
*5708 xofiller!SHFILL1_RVT!x575800y419240
*5709 xofiller!SHFILL1_RVT!x577320y419240
*5710 xofiller!SHFILL1_RVT!x578840y419240
*5711 xofiller!SHFILL1_RVT!x580360y419240
*5712 xofiller!SHFILL1_RVT!x581880y419240
*5713 xofiller!SHFILL1_RVT!x583400y419240
*5714 xofiller!SHFILL1_RVT!x584920y419240
*5715 xofiller!SHFILL1_RVT!x586440y419240
*5716 xofiller!SHFILL1_RVT!x587960y419240
*5717 xofiller!SHFILL1_RVT!x589480y419240
*5718 xofiller!SHFILL1_RVT!x591000y419240
*5719 xofiller!SHFILL1_RVT!x592520y419240
*5720 xofiller!SHFILL1_RVT!x594040y419240
*5721 xofiller!SHFILL1_RVT!x595560y419240
*5722 xofiller!SHFILL1_RVT!x597080y419240
*5723 xofiller!SHFILL1_RVT!x598600y419240
*5724 xofiller!SHFILL1_RVT!x600120y419240
*5725 xofiller!SHFILL1_RVT!x601640y419240
*5726 xofiller!SHFILL1_RVT!x603160y419240
*5727 xofiller!SHFILL1_RVT!x604680y419240
*5728 xofiller!SHFILL1_RVT!x606200y419240
*5729 xofiller!SHFILL1_RVT!x607720y419240
*5730 xofiller!SHFILL1_RVT!x609240y419240
*5731 xofiller!SHFILL1_RVT!x610760y419240
*5732 xofiller!SHFILL1_RVT!x612280y419240
*5733 xofiller!SHFILL1_RVT!x613800y419240
*5734 xofiller!SHFILL1_RVT!x615320y419240
*5735 xofiller!SHFILL1_RVT!x616840y419240
*5736 xofiller!SHFILL1_RVT!x618360y419240
*5737 xofiller!SHFILL1_RVT!x619880y419240
*5738 xofiller!SHFILL1_RVT!x621400y419240
*5739 xofiller!SHFILL1_RVT!x622920y419240
*5740 xofiller!SHFILL1_RVT!x624440y419240
*5741 xofiller!SHFILL1_RVT!x625960y419240
*5742 xofiller!SHFILL1_RVT!x627480y419240
*5743 xofiller!SHFILL1_RVT!x629000y419240
*5744 xofiller!SHFILL1_RVT!x630520y419240
*5745 xofiller!SHFILL1_RVT!x632040y419240
*5746 xofiller!SHFILL1_RVT!x633560y419240
*5747 xofiller!SHFILL1_RVT!x635080y419240
*5748 xofiller!SHFILL1_RVT!x636600y419240
*5749 xofiller!SHFILL1_RVT!x638120y419240
*5750 xofiller!SHFILL1_RVT!x639640y419240
*5751 xofiller!SHFILL1_RVT!x641160y419240
*5752 xofiller!SHFILL1_RVT!x642680y419240
*5753 xofiller!SHFILL1_RVT!x644200y419240
*5754 xofiller!SHFILL1_RVT!x645720y419240
*5755 xofiller!SHFILL1_RVT!x647240y419240
*5756 xofiller!SHFILL1_RVT!x648760y419240
*5757 xofiller!SHFILL1_RVT!x650280y419240
*5758 xofiller!SHFILL1_RVT!x651800y419240
*5759 xofiller!SHFILL1_RVT!x653320y419240
*5760 xofiller!SHFILL1_RVT!x654840y419240
*5761 xofiller!SHFILL1_RVT!x656360y419240
*5762 xofiller!SHFILL1_RVT!x657880y419240
*5763 xofiller!SHFILL1_RVT!x659400y419240
*5764 xofiller!SHFILL1_RVT!x660920y419240
*5765 xofiller!SHFILL1_RVT!x662440y419240
*5766 xofiller!SHFILL1_RVT!x663960y419240
*5767 xofiller!SHFILL1_RVT!x665480y419240
*5768 xofiller!SHFILL1_RVT!x667000y419240
*5769 xofiller!SHFILL1_RVT!x668520y419240
*5770 xofiller!SHFILL1_RVT!x670040y419240
*5771 xofiller!SHFILL1_RVT!x671560y419240
*5772 xofiller!SHFILL1_RVT!x673080y419240
*5773 xofiller!SHFILL1_RVT!x674600y419240
*5774 xofiller!SHFILL1_RVT!x676120y419240
*5775 xofiller!SHFILL1_RVT!x677640y419240
*5776 xofiller!SHFILL1_RVT!x679160y419240
*5777 xofiller!SHFILL1_RVT!x680680y419240
*5778 xofiller!SHFILL1_RVT!x682200y419240
*5779 xofiller!SHFILL1_RVT!x683720y419240
*5780 xofiller!SHFILL1_RVT!x685240y419240
*5781 xofiller!SHFILL1_RVT!x686760y419240
*5782 xofiller!SHFILL1_RVT!x688280y419240
*5783 xofiller!SHFILL1_RVT!x689800y419240
*5784 xofiller!SHFILL1_RVT!x691320y419240
*5785 xofiller!SHFILL1_RVT!x692840y419240
*5786 xofiller!SHFILL1_RVT!x694360y419240
*5787 xofiller!SHFILL1_RVT!x695880y419240
*5788 xofiller!SHFILL1_RVT!x697400y419240
*5789 xofiller!SHFILL1_RVT!x698920y419240
*5790 xofiller!SHFILL1_RVT!x700440y419240
*5791 xofiller!SHFILL1_RVT!x701960y419240
*5792 xofiller!SHFILL1_RVT!x703480y419240
*5793 xofiller!SHFILL1_RVT!x705000y419240
*5794 xofiller!SHFILL1_RVT!x706520y419240
*5795 xofiller!SHFILL1_RVT!x708040y419240
*5796 xofiller!SHFILL1_RVT!x709560y419240
*5797 xofiller!SHFILL1_RVT!x711080y419240
*5798 xofiller!SHFILL1_RVT!x712600y419240
*5799 xofiller!SHFILL1_RVT!x714120y419240
*5800 xofiller!SHFILL1_RVT!x715640y419240
*5801 xofiller!SHFILL1_RVT!x717160y419240
*5802 xofiller!SHFILL1_RVT!x718680y419240
*5803 xofiller!SHFILL1_RVT!x720200y419240
*5804 xofiller!SHFILL1_RVT!x721720y419240
*5805 xofiller!SHFILL1_RVT!x723240y419240
*5806 xofiller!SHFILL1_RVT!x724760y419240
*5807 xofiller!SHFILL1_RVT!x726280y419240
*5808 xofiller!SHFILL1_RVT!x727800y419240
*5809 xofiller!SHFILL1_RVT!x729320y419240
*5810 xofiller!SHFILL1_RVT!x730840y419240
*5811 xofiller!SHFILL1_RVT!x732360y419240
*5812 xofiller!SHFILL1_RVT!x733880y419240
*5813 xofiller!SHFILL1_RVT!x735400y419240
*5814 xofiller!SHFILL1_RVT!x736920y419240
*5815 xofiller!SHFILL1_RVT!x738440y419240
*5816 xofiller!SHFILL1_RVT!x739960y419240
*5817 xofiller!SHFILL1_RVT!x741480y419240
*5818 xofiller!SHFILL1_RVT!x743000y419240
*5819 xofiller!SHFILL1_RVT!x744520y419240
*5820 xofiller!SHFILL1_RVT!x135000y435960
*5821 xofiller!SHFILL1_RVT!x136520y435960
*5822 xofiller!SHFILL1_RVT!x138040y435960
*5823 xofiller!SHFILL1_RVT!x139560y435960
*5824 xofiller!SHFILL1_RVT!x141080y435960
*5825 xofiller!SHFILL1_RVT!x142600y435960
*5826 xofiller!SHFILL1_RVT!x144120y435960
*5827 xofiller!SHFILL1_RVT!x145640y435960
*5828 xofiller!SHFILL1_RVT!x147160y435960
*5829 xofiller!SHFILL1_RVT!x148680y435960
*5830 xofiller!SHFILL1_RVT!x150200y435960
*5831 xofiller!SHFILL1_RVT!x151720y435960
*5832 xofiller!SHFILL1_RVT!x153240y435960
*5833 xofiller!SHFILL1_RVT!x154760y435960
*5834 xofiller!SHFILL1_RVT!x156280y435960
*5835 xofiller!SHFILL1_RVT!x157800y435960
*5836 xofiller!SHFILL1_RVT!x159320y435960
*5837 xofiller!SHFILL1_RVT!x160840y435960
*5838 xofiller!SHFILL1_RVT!x162360y435960
*5839 xofiller!SHFILL1_RVT!x163880y435960
*5840 xofiller!SHFILL1_RVT!x165400y435960
*5841 xofiller!SHFILL1_RVT!x166920y435960
*5842 xofiller!SHFILL1_RVT!x168440y435960
*5843 xofiller!SHFILL1_RVT!x169960y435960
*5844 xofiller!SHFILL1_RVT!x171480y435960
*5845 xofiller!SHFILL1_RVT!x173000y435960
*5846 xofiller!SHFILL1_RVT!x174520y435960
*5847 xofiller!SHFILL1_RVT!x176040y435960
*5848 xofiller!SHFILL1_RVT!x177560y435960
*5849 xofiller!SHFILL1_RVT!x179080y435960
*5850 xofiller!SHFILL1_RVT!x180600y435960
*5851 xofiller!SHFILL1_RVT!x182120y435960
*5852 xofiller!SHFILL1_RVT!x183640y435960
*5853 xofiller!SHFILL1_RVT!x185160y435960
*5854 xofiller!SHFILL1_RVT!x186680y435960
*5855 xofiller!SHFILL1_RVT!x188200y435960
*5856 xofiller!SHFILL1_RVT!x189720y435960
*5857 xofiller!SHFILL1_RVT!x191240y435960
*5858 xofiller!SHFILL1_RVT!x192760y435960
*5859 xofiller!SHFILL1_RVT!x194280y435960
*5860 xofiller!SHFILL1_RVT!x195800y435960
*5861 xofiller!SHFILL1_RVT!x197320y435960
*5862 xofiller!SHFILL1_RVT!x198840y435960
*5863 xofiller!SHFILL1_RVT!x200360y435960
*5864 xofiller!SHFILL1_RVT!x201880y435960
*5865 xofiller!SHFILL1_RVT!x203400y435960
*5866 xofiller!SHFILL1_RVT!x204920y435960
*5867 xofiller!SHFILL1_RVT!x206440y435960
*5868 xofiller!SHFILL1_RVT!x277880y435960
*5869 xofiller!SHFILL1_RVT!x279400y435960
*5870 xofiller!SHFILL1_RVT!x280920y435960
*5871 xofiller!SHFILL1_RVT!x282440y435960
*5872 xofiller!SHFILL1_RVT!x283960y435960
*5873 xofiller!SHFILL1_RVT!x285480y435960
*5874 xofiller!SHFILL1_RVT!x287000y435960
*5875 xofiller!SHFILL1_RVT!x288520y435960
*5876 xofiller!SHFILL1_RVT!x290040y435960
*5877 xofiller!SHFILL1_RVT!x291560y435960
*5878 xofiller!SHFILL1_RVT!x293080y435960
*5879 xofiller!SHFILL1_RVT!x294600y435960
*5880 xofiller!SHFILL1_RVT!x296120y435960
*5881 xofiller!SHFILL1_RVT!x297640y435960
*5882 xofiller!SHFILL1_RVT!x299160y435960
*5883 xofiller!SHFILL1_RVT!x300680y435960
*5884 xofiller!SHFILL1_RVT!x302200y435960
*5885 xofiller!SHFILL1_RVT!x303720y435960
*5886 xofiller!SHFILL1_RVT!x305240y435960
*5887 xofiller!SHFILL1_RVT!x306760y435960
*5888 xofiller!SHFILL1_RVT!x308280y435960
*5889 xofiller!SHFILL1_RVT!x309800y435960
*5890 xofiller!SHFILL1_RVT!x311320y435960
*5891 xofiller!SHFILL1_RVT!x312840y435960
*5892 xofiller!SHFILL1_RVT!x314360y435960
*5893 xofiller!SHFILL1_RVT!x315880y435960
*5894 xofiller!SHFILL1_RVT!x317400y435960
*5895 xofiller!SHFILL1_RVT!x318920y435960
*5896 xofiller!SHFILL1_RVT!x320440y435960
*5897 xofiller!SHFILL1_RVT!x337160y435960
*5898 xofiller!SHFILL1_RVT!x338680y435960
*5899 xofiller!SHFILL1_RVT!x340200y435960
*5900 xofiller!SHFILL1_RVT!x341720y435960
*5901 xofiller!SHFILL1_RVT!x343240y435960
*5902 xofiller!SHFILL1_RVT!x344760y435960
*5903 xofiller!SHFILL1_RVT!x346280y435960
*5904 xofiller!SHFILL1_RVT!x347800y435960
*5905 xofiller!SHFILL1_RVT!x349320y435960
*5906 xofiller!SHFILL1_RVT!x350840y435960
*5907 xofiller!SHFILL1_RVT!x352360y435960
*5908 xofiller!SHFILL1_RVT!x353880y435960
*5909 xofiller!SHFILL1_RVT!x355400y435960
*5910 xofiller!SHFILL1_RVT!x356920y435960
*5911 xofiller!SHFILL1_RVT!x366040y435960
*5912 xofiller!SHFILL1_RVT!x367560y435960
*5913 xofiller!SHFILL1_RVT!x369080y435960
*5914 xofiller!SHFILL1_RVT!x370600y435960
*5915 xofiller!SHFILL1_RVT!x372120y435960
*5916 xofiller!SHFILL1_RVT!x373640y435960
*5917 xofiller!SHFILL1_RVT!x375160y435960
*5918 xofiller!SHFILL1_RVT!x376680y435960
*5919 xofiller!SHFILL1_RVT!x378200y435960
*5920 xofiller!SHFILL1_RVT!x379720y435960
*5921 xofiller!SHFILL1_RVT!x381240y435960
*5922 xofiller!SHFILL1_RVT!x382760y435960
*5923 xofiller!SHFILL1_RVT!x384280y435960
*5924 xofiller!SHFILL1_RVT!x385800y435960
*5925 xofiller!SHFILL1_RVT!x387320y435960
*5926 xofiller!SHFILL1_RVT!x388840y435960
*5927 xofiller!SHFILL1_RVT!x405560y435960
*5928 xofiller!SHFILL1_RVT!x407080y435960
*5929 xofiller!SHFILL1_RVT!x408600y435960
*5930 xofiller!SHFILL1_RVT!x410120y435960
*5931 xofiller!SHFILL1_RVT!x411640y435960
*5932 xofiller!SHFILL1_RVT!x413160y435960
*5933 xofiller!SHFILL1_RVT!x414680y435960
*5934 xofiller!SHFILL1_RVT!x416200y435960
*5935 xofiller!SHFILL1_RVT!x417720y435960
*5936 xofiller!SHFILL1_RVT!x419240y435960
*5937 xofiller!SHFILL1_RVT!x420760y435960
*5938 xofiller!SHFILL1_RVT!x422280y435960
*5939 xofiller!SHFILL1_RVT!x423800y435960
*5940 xofiller!SHFILL1_RVT!x425320y435960
*5941 xofiller!SHFILL1_RVT!x426840y435960
*5942 xofiller!SHFILL1_RVT!x428360y435960
*5943 xofiller!SHFILL1_RVT!x429880y435960
*5944 xofiller!SHFILL1_RVT!x440520y435960
*5945 xofiller!SHFILL1_RVT!x442040y435960
*5946 xofiller!SHFILL1_RVT!x443560y435960
*5947 xofiller!SHFILL1_RVT!x445080y435960
*5948 xofiller!SHFILL1_RVT!x446600y435960
*5949 xofiller!SHFILL1_RVT!x448120y435960
*5950 xofiller!SHFILL1_RVT!x449640y435960
*5951 xofiller!SHFILL1_RVT!x451160y435960
*5952 xofiller!SHFILL1_RVT!x452680y435960
*5953 xofiller!SHFILL1_RVT!x454200y435960
*5954 xofiller!SHFILL1_RVT!x455720y435960
*5955 xofiller!SHFILL1_RVT!x477000y435960
*5956 xofiller!SHFILL1_RVT!x478520y435960
*5957 xofiller!SHFILL1_RVT!x480040y435960
*5958 xofiller!SHFILL1_RVT!x481560y435960
*5959 xofiller!SHFILL1_RVT!x483080y435960
*5960 xofiller!SHFILL1_RVT!x484600y435960
*5961 xofiller!SHFILL1_RVT!x486120y435960
*5962 xofiller!SHFILL1_RVT!x487640y435960
*5963 xofiller!SHFILL1_RVT!x489160y435960
*5964 xofiller!SHFILL1_RVT!x490680y435960
*5965 xofiller!SHFILL1_RVT!x492200y435960
*5966 xofiller!SHFILL1_RVT!x493720y435960
*5967 xofiller!SHFILL1_RVT!x495240y435960
*5968 xofiller!SHFILL1_RVT!x496760y435960
*5969 xofiller!SHFILL1_RVT!x498280y435960
*5970 xofiller!SHFILL1_RVT!x499800y435960
*5971 xofiller!SHFILL1_RVT!x501320y435960
*5972 xofiller!SHFILL1_RVT!x502840y435960
*5973 xofiller!SHFILL1_RVT!x504360y435960
*5974 xofiller!SHFILL1_RVT!x505880y435960
*5975 xofiller!SHFILL1_RVT!x507400y435960
*5976 xofiller!SHFILL1_RVT!x508920y435960
*5977 xofiller!SHFILL1_RVT!x510440y435960
*5978 xofiller!SHFILL1_RVT!x511960y435960
*5979 xofiller!SHFILL1_RVT!x513480y435960
*5980 xofiller!SHFILL1_RVT!x515000y435960
*5981 xofiller!SHFILL1_RVT!x516520y435960
*5982 xofiller!SHFILL1_RVT!x518040y435960
*5983 xofiller!SHFILL1_RVT!x519560y435960
*5984 xofiller!SHFILL1_RVT!x521080y435960
*5985 xofiller!SHFILL1_RVT!x522600y435960
*5986 xofiller!SHFILL1_RVT!x524120y435960
*5987 xofiller!SHFILL1_RVT!x525640y435960
*5988 xofiller!SHFILL1_RVT!x527160y435960
*5989 xofiller!SHFILL1_RVT!x528680y435960
*5990 xofiller!SHFILL1_RVT!x530200y435960
*5991 xofiller!SHFILL1_RVT!x531720y435960
*5992 xofiller!SHFILL1_RVT!x533240y435960
*5993 xofiller!SHFILL1_RVT!x534760y435960
*5994 xofiller!SHFILL1_RVT!x536280y435960
*5995 xofiller!SHFILL1_RVT!x537800y435960
*5996 xofiller!SHFILL1_RVT!x539320y435960
*5997 xofiller!SHFILL1_RVT!x540840y435960
*5998 xofiller!SHFILL1_RVT!x542360y435960
*5999 xofiller!SHFILL1_RVT!x543880y435960
*6000 xofiller!SHFILL1_RVT!x545400y435960
*6001 xofiller!SHFILL1_RVT!x560600y435960
*6002 xofiller!SHFILL1_RVT!x562120y435960
*6003 xofiller!SHFILL1_RVT!x563640y435960
*6004 xofiller!SHFILL1_RVT!x565160y435960
*6005 xofiller!SHFILL1_RVT!x566680y435960
*6006 xofiller!SHFILL1_RVT!x568200y435960
*6007 xofiller!SHFILL1_RVT!x569720y435960
*6008 xofiller!SHFILL1_RVT!x571240y435960
*6009 xofiller!SHFILL1_RVT!x572760y435960
*6010 xofiller!SHFILL1_RVT!x574280y435960
*6011 xofiller!SHFILL1_RVT!x575800y435960
*6012 xofiller!SHFILL1_RVT!x577320y435960
*6013 xofiller!SHFILL1_RVT!x578840y435960
*6014 xofiller!SHFILL1_RVT!x580360y435960
*6015 xofiller!SHFILL1_RVT!x581880y435960
*6016 xofiller!SHFILL1_RVT!x583400y435960
*6017 xofiller!SHFILL1_RVT!x584920y435960
*6018 xofiller!SHFILL1_RVT!x586440y435960
*6019 xofiller!SHFILL1_RVT!x587960y435960
*6020 xofiller!SHFILL1_RVT!x589480y435960
*6021 xofiller!SHFILL1_RVT!x591000y435960
*6022 xofiller!SHFILL1_RVT!x592520y435960
*6023 xofiller!SHFILL1_RVT!x594040y435960
*6024 xofiller!SHFILL1_RVT!x607720y435960
*6025 xofiller!SHFILL1_RVT!x609240y435960
*6026 xofiller!SHFILL1_RVT!x610760y435960
*6027 xofiller!SHFILL1_RVT!x612280y435960
*6028 xofiller!SHFILL1_RVT!x613800y435960
*6029 xofiller!SHFILL1_RVT!x615320y435960
*6030 xofiller!SHFILL1_RVT!x616840y435960
*6031 xofiller!SHFILL1_RVT!x618360y435960
*6032 xofiller!SHFILL1_RVT!x619880y435960
*6033 xofiller!SHFILL1_RVT!x621400y435960
*6034 xofiller!SHFILL1_RVT!x622920y435960
*6035 xofiller!SHFILL1_RVT!x624440y435960
*6036 xofiller!SHFILL1_RVT!x625960y435960
*6037 xofiller!SHFILL1_RVT!x627480y435960
*6038 xofiller!SHFILL1_RVT!x629000y435960
*6039 xofiller!SHFILL1_RVT!x630520y435960
*6040 xofiller!SHFILL1_RVT!x632040y435960
*6041 xofiller!SHFILL1_RVT!x633560y435960
*6042 xofiller!SHFILL1_RVT!x635080y435960
*6043 xofiller!SHFILL1_RVT!x636600y435960
*6044 xofiller!SHFILL1_RVT!x638120y435960
*6045 xofiller!SHFILL1_RVT!x639640y435960
*6046 xofiller!SHFILL1_RVT!x641160y435960
*6047 xofiller!SHFILL1_RVT!x642680y435960
*6048 xofiller!SHFILL1_RVT!x644200y435960
*6049 xofiller!SHFILL1_RVT!x645720y435960
*6050 xofiller!SHFILL1_RVT!x647240y435960
*6051 xofiller!SHFILL1_RVT!x648760y435960
*6052 xofiller!SHFILL1_RVT!x650280y435960
*6053 xofiller!SHFILL1_RVT!x651800y435960
*6054 xofiller!SHFILL1_RVT!x653320y435960
*6055 xofiller!SHFILL1_RVT!x654840y435960
*6056 xofiller!SHFILL1_RVT!x656360y435960
*6057 xofiller!SHFILL1_RVT!x657880y435960
*6058 xofiller!SHFILL1_RVT!x659400y435960
*6059 xofiller!SHFILL1_RVT!x660920y435960
*6060 xofiller!SHFILL1_RVT!x662440y435960
*6061 xofiller!SHFILL1_RVT!x706520y435960
*6062 xofiller!SHFILL1_RVT!x708040y435960
*6063 xofiller!SHFILL1_RVT!x709560y435960
*6064 xofiller!SHFILL1_RVT!x711080y435960
*6065 xofiller!SHFILL1_RVT!x712600y435960
*6066 xofiller!SHFILL1_RVT!x714120y435960
*6067 xofiller!SHFILL1_RVT!x715640y435960
*6068 xofiller!SHFILL1_RVT!x717160y435960
*6069 xofiller!SHFILL1_RVT!x718680y435960
*6070 xofiller!SHFILL1_RVT!x720200y435960
*6071 xofiller!SHFILL1_RVT!x721720y435960
*6072 xofiller!SHFILL1_RVT!x723240y435960
*6073 xofiller!SHFILL1_RVT!x724760y435960
*6074 xofiller!SHFILL1_RVT!x726280y435960
*6075 xofiller!SHFILL1_RVT!x727800y435960
*6076 xofiller!SHFILL1_RVT!x729320y435960
*6077 xofiller!SHFILL1_RVT!x730840y435960
*6078 xofiller!SHFILL1_RVT!x732360y435960
*6079 xofiller!SHFILL1_RVT!x733880y435960
*6080 xofiller!SHFILL1_RVT!x735400y435960
*6081 xofiller!SHFILL1_RVT!x736920y435960
*6082 xofiller!SHFILL1_RVT!x738440y435960
*6083 xofiller!SHFILL1_RVT!x739960y435960
*6084 xofiller!SHFILL1_RVT!x741480y435960
*6085 xofiller!SHFILL1_RVT!x743000y435960
*6086 xofiller!SHFILL1_RVT!x744520y435960
*6087 xofiller!SHFILL1_RVT!x135000y452680
*6088 xofiller!SHFILL1_RVT!x136520y452680
*6089 xofiller!SHFILL1_RVT!x138040y452680
*6090 xofiller!SHFILL1_RVT!x139560y452680
*6091 xofiller!SHFILL1_RVT!x141080y452680
*6092 xofiller!SHFILL1_RVT!x142600y452680
*6093 xofiller!SHFILL1_RVT!x144120y452680
*6094 xofiller!SHFILL1_RVT!x145640y452680
*6095 xofiller!SHFILL1_RVT!x147160y452680
*6096 xofiller!SHFILL1_RVT!x148680y452680
*6097 xofiller!SHFILL1_RVT!x150200y452680
*6098 xofiller!SHFILL1_RVT!x151720y452680
*6099 xofiller!SHFILL1_RVT!x153240y452680
*6100 xofiller!SHFILL1_RVT!x154760y452680
*6101 xofiller!SHFILL1_RVT!x156280y452680
*6102 xofiller!SHFILL1_RVT!x157800y452680
*6103 xofiller!SHFILL1_RVT!x159320y452680
*6104 xofiller!SHFILL1_RVT!x160840y452680
*6105 xofiller!SHFILL1_RVT!x162360y452680
*6106 xofiller!SHFILL1_RVT!x163880y452680
*6107 xofiller!SHFILL1_RVT!x165400y452680
*6108 xofiller!SHFILL1_RVT!x166920y452680
*6109 xofiller!SHFILL1_RVT!x168440y452680
*6110 xofiller!SHFILL1_RVT!x169960y452680
*6111 xofiller!SHFILL1_RVT!x171480y452680
*6112 xofiller!SHFILL1_RVT!x173000y452680
*6113 xofiller!SHFILL1_RVT!x174520y452680
*6114 xofiller!SHFILL1_RVT!x176040y452680
*6115 xofiller!SHFILL1_RVT!x177560y452680
*6116 xofiller!SHFILL1_RVT!x179080y452680
*6117 xofiller!SHFILL1_RVT!x180600y452680
*6118 xofiller!SHFILL1_RVT!x182120y452680
*6119 xofiller!SHFILL1_RVT!x183640y452680
*6120 xofiller!SHFILL1_RVT!x185160y452680
*6121 xofiller!SHFILL1_RVT!x198840y452680
*6122 xofiller!SHFILL1_RVT!x200360y452680
*6123 xofiller!SHFILL1_RVT!x201880y452680
*6124 xofiller!SHFILL1_RVT!x203400y452680
*6125 xofiller!SHFILL1_RVT!x204920y452680
*6126 xofiller!SHFILL1_RVT!x206440y452680
*6127 xofiller!SHFILL1_RVT!x207960y452680
*6128 xofiller!SHFILL1_RVT!x247480y452680
*6129 xofiller!SHFILL1_RVT!x249000y452680
*6130 xofiller!SHFILL1_RVT!x250520y452680
*6131 xofiller!SHFILL1_RVT!x252040y452680
*6132 xofiller!SHFILL1_RVT!x253560y452680
*6133 xofiller!SHFILL1_RVT!x255080y452680
*6134 xofiller!SHFILL1_RVT!x256600y452680
*6135 xofiller!SHFILL1_RVT!x258120y452680
*6136 xofiller!SHFILL1_RVT!x302200y452680
*6137 xofiller!SHFILL1_RVT!x303720y452680
*6138 xofiller!SHFILL1_RVT!x375160y452680
*6139 xofiller!SHFILL1_RVT!x376680y452680
*6140 xofiller!SHFILL1_RVT!x378200y452680
*6141 xofiller!SHFILL1_RVT!x379720y452680
*6142 xofiller!SHFILL1_RVT!x381240y452680
*6143 xofiller!SHFILL1_RVT!x382760y452680
*6144 xofiller!SHFILL1_RVT!x384280y452680
*6145 xofiller!SHFILL1_RVT!x385800y452680
*6146 xofiller!SHFILL1_RVT!x387320y452680
*6147 xofiller!SHFILL1_RVT!x388840y452680
*6148 xofiller!SHFILL1_RVT!x390360y452680
*6149 xofiller!SHFILL1_RVT!x391880y452680
*6150 xofiller!SHFILL1_RVT!x393400y452680
*6151 xofiller!SHFILL1_RVT!x394920y452680
*6152 xofiller!SHFILL1_RVT!x396440y452680
*6153 xofiller!SHFILL1_RVT!x397960y452680
*6154 xofiller!SHFILL1_RVT!x399480y452680
*6155 xofiller!SHFILL1_RVT!x401000y452680
*6156 xofiller!SHFILL1_RVT!x402520y452680
*6157 xofiller!SHFILL1_RVT!x404040y452680
*6158 xofiller!SHFILL1_RVT!x405560y452680
*6159 xofiller!SHFILL1_RVT!x407080y452680
*6160 xofiller!SHFILL1_RVT!x408600y452680
*6161 xofiller!SHFILL1_RVT!x410120y452680
*6162 xofiller!SHFILL1_RVT!x411640y452680
*6163 xofiller!SHFILL1_RVT!x413160y452680
*6164 xofiller!SHFILL1_RVT!x414680y452680
*6165 xofiller!SHFILL1_RVT!x416200y452680
*6166 xofiller!SHFILL1_RVT!x417720y452680
*6167 xofiller!SHFILL1_RVT!x419240y452680
*6168 xofiller!SHFILL1_RVT!x420760y452680
*6169 xofiller!SHFILL1_RVT!x422280y452680
*6170 xofiller!SHFILL1_RVT!x423800y452680
*6171 xofiller!SHFILL1_RVT!x425320y452680
*6172 xofiller!SHFILL1_RVT!x426840y452680
*6173 xofiller!SHFILL1_RVT!x428360y452680
*6174 xofiller!SHFILL1_RVT!x429880y452680
*6175 xofiller!SHFILL1_RVT!x431400y452680
*6176 xofiller!SHFILL1_RVT!x432920y452680
*6177 xofiller!SHFILL1_RVT!x434440y452680
*6178 xofiller!SHFILL1_RVT!x435960y452680
*6179 xofiller!SHFILL1_RVT!x437480y452680
*6180 xofiller!SHFILL1_RVT!x439000y452680
*6181 xofiller!SHFILL1_RVT!x440520y452680
*6182 xofiller!SHFILL1_RVT!x442040y452680
*6183 xofiller!SHFILL1_RVT!x443560y452680
*6184 xofiller!SHFILL1_RVT!x445080y452680
*6185 xofiller!SHFILL1_RVT!x446600y452680
*6186 xofiller!SHFILL1_RVT!x448120y452680
*6187 xofiller!SHFILL1_RVT!x449640y452680
*6188 xofiller!SHFILL1_RVT!x451160y452680
*6189 xofiller!SHFILL1_RVT!x452680y452680
*6190 xofiller!SHFILL1_RVT!x496760y452680
*6191 xofiller!SHFILL1_RVT!x498280y452680
*6192 xofiller!SHFILL1_RVT!x499800y452680
*6193 xofiller!SHFILL1_RVT!x516520y452680
*6194 xofiller!SHFILL1_RVT!x518040y452680
*6195 xofiller!SHFILL1_RVT!x519560y452680
*6196 xofiller!SHFILL1_RVT!x521080y452680
*6197 xofiller!SHFILL1_RVT!x522600y452680
*6198 xofiller!SHFILL1_RVT!x524120y452680
*6199 xofiller!SHFILL1_RVT!x525640y452680
*6200 xofiller!SHFILL1_RVT!x527160y452680
*6201 xofiller!SHFILL1_RVT!x528680y452680
*6202 xofiller!SHFILL1_RVT!x530200y452680
*6203 xofiller!SHFILL1_RVT!x531720y452680
*6204 xofiller!SHFILL1_RVT!x533240y452680
*6205 xofiller!SHFILL1_RVT!x534760y452680
*6206 xofiller!SHFILL1_RVT!x536280y452680
*6207 xofiller!SHFILL1_RVT!x537800y452680
*6208 xofiller!SHFILL1_RVT!x539320y452680
*6209 xofiller!SHFILL1_RVT!x540840y452680
*6210 xofiller!SHFILL1_RVT!x542360y452680
*6211 xofiller!SHFILL1_RVT!x543880y452680
*6212 xofiller!SHFILL1_RVT!x545400y452680
*6213 xofiller!SHFILL1_RVT!x546920y452680
*6214 xofiller!SHFILL1_RVT!x548440y452680
*6215 xofiller!SHFILL1_RVT!x549960y452680
*6216 xofiller!SHFILL1_RVT!x551480y452680
*6217 xofiller!SHFILL1_RVT!x553000y452680
*6218 xofiller!SHFILL1_RVT!x554520y452680
*6219 xofiller!SHFILL1_RVT!x556040y452680
*6220 xofiller!SHFILL1_RVT!x557560y452680
*6221 xofiller!SHFILL1_RVT!x559080y452680
*6222 xofiller!SHFILL1_RVT!x560600y452680
*6223 xofiller!SHFILL1_RVT!x562120y452680
*6224 xofiller!SHFILL1_RVT!x563640y452680
*6225 xofiller!SHFILL1_RVT!x565160y452680
*6226 xofiller!SHFILL1_RVT!x566680y452680
*6227 xofiller!SHFILL1_RVT!x568200y452680
*6228 xofiller!SHFILL1_RVT!x569720y452680
*6229 xofiller!SHFILL1_RVT!x571240y452680
*6230 xofiller!SHFILL1_RVT!x572760y452680
*6231 xofiller!SHFILL1_RVT!x574280y452680
*6232 xofiller!SHFILL1_RVT!x575800y452680
*6233 xofiller!SHFILL1_RVT!x577320y452680
*6234 xofiller!SHFILL1_RVT!x578840y452680
*6235 xofiller!SHFILL1_RVT!x580360y452680
*6236 xofiller!SHFILL1_RVT!x581880y452680
*6237 xofiller!SHFILL1_RVT!x583400y452680
*6238 xofiller!SHFILL1_RVT!x584920y452680
*6239 xofiller!SHFILL1_RVT!x586440y452680
*6240 xofiller!SHFILL1_RVT!x587960y452680
*6241 xofiller!SHFILL1_RVT!x589480y452680
*6242 xofiller!SHFILL1_RVT!x591000y452680
*6243 xofiller!SHFILL1_RVT!x592520y452680
*6244 xofiller!SHFILL1_RVT!x594040y452680
*6245 xofiller!SHFILL1_RVT!x595560y452680
*6246 xofiller!SHFILL1_RVT!x597080y452680
*6247 xofiller!SHFILL1_RVT!x598600y452680
*6248 xofiller!SHFILL1_RVT!x600120y452680
*6249 xofiller!SHFILL1_RVT!x601640y452680
*6250 xofiller!SHFILL1_RVT!x603160y452680
*6251 xofiller!SHFILL1_RVT!x604680y452680
*6252 xofiller!SHFILL1_RVT!x606200y452680
*6253 xofiller!SHFILL1_RVT!x607720y452680
*6254 xofiller!SHFILL1_RVT!x609240y452680
*6255 xofiller!SHFILL1_RVT!x610760y452680
*6256 xofiller!SHFILL1_RVT!x612280y452680
*6257 xofiller!SHFILL1_RVT!x613800y452680
*6258 xofiller!SHFILL1_RVT!x615320y452680
*6259 xofiller!SHFILL1_RVT!x616840y452680
*6260 xofiller!SHFILL1_RVT!x618360y452680
*6261 xofiller!SHFILL1_RVT!x619880y452680
*6262 xofiller!SHFILL1_RVT!x621400y452680
*6263 xofiller!SHFILL1_RVT!x622920y452680
*6264 xofiller!SHFILL1_RVT!x624440y452680
*6265 xofiller!SHFILL1_RVT!x625960y452680
*6266 xofiller!SHFILL1_RVT!x627480y452680
*6267 xofiller!SHFILL1_RVT!x629000y452680
*6268 xofiller!SHFILL1_RVT!x630520y452680
*6269 xofiller!SHFILL1_RVT!x632040y452680
*6270 xofiller!SHFILL1_RVT!x633560y452680
*6271 xofiller!SHFILL1_RVT!x635080y452680
*6272 xofiller!SHFILL1_RVT!x636600y452680
*6273 xofiller!SHFILL1_RVT!x638120y452680
*6274 xofiller!SHFILL1_RVT!x639640y452680
*6275 xofiller!SHFILL1_RVT!x641160y452680
*6276 xofiller!SHFILL1_RVT!x642680y452680
*6277 xofiller!SHFILL1_RVT!x644200y452680
*6278 xofiller!SHFILL1_RVT!x645720y452680
*6279 xofiller!SHFILL1_RVT!x647240y452680
*6280 xofiller!SHFILL1_RVT!x648760y452680
*6281 xofiller!SHFILL1_RVT!x650280y452680
*6282 xofiller!SHFILL1_RVT!x651800y452680
*6283 xofiller!SHFILL1_RVT!x653320y452680
*6284 xofiller!SHFILL1_RVT!x654840y452680
*6285 xofiller!SHFILL1_RVT!x656360y452680
*6286 xofiller!SHFILL1_RVT!x657880y452680
*6287 xofiller!SHFILL1_RVT!x667000y452680
*6288 xofiller!SHFILL1_RVT!x668520y452680
*6289 xofiller!SHFILL1_RVT!x670040y452680
*6290 xofiller!SHFILL1_RVT!x671560y452680
*6291 xofiller!SHFILL1_RVT!x673080y452680
*6292 xofiller!SHFILL1_RVT!x674600y452680
*6293 xofiller!SHFILL1_RVT!x676120y452680
*6294 xofiller!SHFILL1_RVT!x677640y452680
*6295 xofiller!SHFILL1_RVT!x679160y452680
*6296 xofiller!SHFILL1_RVT!x680680y452680
*6297 xofiller!SHFILL1_RVT!x682200y452680
*6298 xofiller!SHFILL1_RVT!x683720y452680
*6299 xofiller!SHFILL1_RVT!x685240y452680
*6300 xofiller!SHFILL1_RVT!x686760y452680
*6301 xofiller!SHFILL1_RVT!x688280y452680
*6302 xofiller!SHFILL1_RVT!x689800y452680
*6303 xofiller!SHFILL1_RVT!x691320y452680
*6304 xofiller!SHFILL1_RVT!x692840y452680
*6305 xofiller!SHFILL1_RVT!x694360y452680
*6306 xofiller!SHFILL1_RVT!x695880y452680
*6307 xofiller!SHFILL1_RVT!x697400y452680
*6308 xofiller!SHFILL1_RVT!x698920y452680
*6309 xofiller!SHFILL1_RVT!x700440y452680
*6310 xofiller!SHFILL1_RVT!x701960y452680
*6311 xofiller!SHFILL1_RVT!x703480y452680
*6312 xofiller!SHFILL1_RVT!x705000y452680
*6313 xofiller!SHFILL1_RVT!x706520y452680
*6314 xofiller!SHFILL1_RVT!x708040y452680
*6315 xofiller!SHFILL1_RVT!x709560y452680
*6316 xofiller!SHFILL1_RVT!x711080y452680
*6317 xofiller!SHFILL1_RVT!x712600y452680
*6318 xofiller!SHFILL1_RVT!x714120y452680
*6319 xofiller!SHFILL1_RVT!x715640y452680
*6320 xofiller!SHFILL1_RVT!x717160y452680
*6321 xofiller!SHFILL1_RVT!x718680y452680
*6322 xofiller!SHFILL1_RVT!x735400y452680
*6323 xofiller!SHFILL1_RVT!x736920y452680
*6324 xofiller!SHFILL1_RVT!x738440y452680
*6325 xofiller!SHFILL1_RVT!x739960y452680
*6326 xofiller!SHFILL1_RVT!x741480y452680
*6327 xofiller!SHFILL1_RVT!x743000y452680
*6328 xofiller!SHFILL1_RVT!x744520y452680
*6329 xofiller!SHFILL1_RVT!x135000y469400
*6330 xofiller!SHFILL1_RVT!x136520y469400
*6331 xofiller!SHFILL1_RVT!x138040y469400
*6332 xofiller!SHFILL1_RVT!x139560y469400
*6333 xofiller!SHFILL1_RVT!x141080y469400
*6334 xofiller!SHFILL1_RVT!x142600y469400
*6335 xofiller!SHFILL1_RVT!x144120y469400
*6336 xofiller!SHFILL1_RVT!x145640y469400
*6337 xofiller!SHFILL1_RVT!x147160y469400
*6338 xofiller!SHFILL1_RVT!x148680y469400
*6339 xofiller!SHFILL1_RVT!x150200y469400
*6340 xofiller!SHFILL1_RVT!x151720y469400
*6341 xofiller!SHFILL1_RVT!x153240y469400
*6342 xofiller!SHFILL1_RVT!x154760y469400
*6343 xofiller!SHFILL1_RVT!x168440y469400
*6344 xofiller!SHFILL1_RVT!x169960y469400
*6345 xofiller!SHFILL1_RVT!x171480y469400
*6346 xofiller!SHFILL1_RVT!x173000y469400
*6347 xofiller!SHFILL1_RVT!x174520y469400
*6348 xofiller!SHFILL1_RVT!x176040y469400
*6349 xofiller!SHFILL1_RVT!x177560y469400
*6350 xofiller!SHFILL1_RVT!x179080y469400
*6351 xofiller!SHFILL1_RVT!x180600y469400
*6352 xofiller!SHFILL1_RVT!x182120y469400
*6353 xofiller!SHFILL1_RVT!x183640y469400
*6354 xofiller!SHFILL1_RVT!x185160y469400
*6355 xofiller!SHFILL1_RVT!x186680y469400
*6356 xofiller!SHFILL1_RVT!x188200y469400
*6357 xofiller!SHFILL1_RVT!x189720y469400
*6358 xofiller!SHFILL1_RVT!x191240y469400
*6359 xofiller!SHFILL1_RVT!x192760y469400
*6360 xofiller!SHFILL1_RVT!x194280y469400
*6361 xofiller!SHFILL1_RVT!x195800y469400
*6362 xofiller!SHFILL1_RVT!x197320y469400
*6363 xofiller!SHFILL1_RVT!x198840y469400
*6364 xofiller!SHFILL1_RVT!x200360y469400
*6365 xofiller!SHFILL1_RVT!x201880y469400
*6366 xofiller!SHFILL1_RVT!x203400y469400
*6367 xofiller!SHFILL1_RVT!x204920y469400
*6368 xofiller!SHFILL1_RVT!x206440y469400
*6369 xofiller!SHFILL1_RVT!x207960y469400
*6370 xofiller!SHFILL1_RVT!x209480y469400
*6371 xofiller!SHFILL1_RVT!x226200y469400
*6372 xofiller!SHFILL1_RVT!x227720y469400
*6373 xofiller!SHFILL1_RVT!x229240y469400
*6374 xofiller!SHFILL1_RVT!x230760y469400
*6375 xofiller!SHFILL1_RVT!x232280y469400
*6376 xofiller!SHFILL1_RVT!x233800y469400
*6377 xofiller!SHFILL1_RVT!x235320y469400
*6378 xofiller!SHFILL1_RVT!x236840y469400
*6379 xofiller!SHFILL1_RVT!x238360y469400
*6380 xofiller!SHFILL1_RVT!x239880y469400
*6381 xofiller!SHFILL1_RVT!x241400y469400
*6382 xofiller!SHFILL1_RVT!x242920y469400
*6383 xofiller!SHFILL1_RVT!x244440y469400
*6384 xofiller!SHFILL1_RVT!x245960y469400
*6385 xofiller!SHFILL1_RVT!x247480y469400
*6386 xofiller!SHFILL1_RVT!x249000y469400
*6387 xofiller!SHFILL1_RVT!x250520y469400
*6388 xofiller!SHFILL1_RVT!x252040y469400
*6389 xofiller!SHFILL1_RVT!x253560y469400
*6390 xofiller!SHFILL1_RVT!x255080y469400
*6391 xofiller!SHFILL1_RVT!x256600y469400
*6392 xofiller!SHFILL1_RVT!x258120y469400
*6393 xofiller!SHFILL1_RVT!x259640y469400
*6394 xofiller!SHFILL1_RVT!x300680y469400
*6395 xofiller!SHFILL1_RVT!x302200y469400
*6396 xofiller!SHFILL1_RVT!x303720y469400
*6397 xofiller!SHFILL1_RVT!x305240y469400
*6398 xofiller!SHFILL1_RVT!x306760y469400
*6399 xofiller!SHFILL1_RVT!x338680y469400
*6400 xofiller!SHFILL1_RVT!x340200y469400
*6401 xofiller!SHFILL1_RVT!x341720y469400
*6402 xofiller!SHFILL1_RVT!x343240y469400
*6403 xofiller!SHFILL1_RVT!x344760y469400
*6404 xofiller!SHFILL1_RVT!x346280y469400
*6405 xofiller!SHFILL1_RVT!x347800y469400
*6406 xofiller!SHFILL1_RVT!x349320y469400
*6407 xofiller!SHFILL1_RVT!x350840y469400
*6408 xofiller!SHFILL1_RVT!x352360y469400
*6409 xofiller!SHFILL1_RVT!x353880y469400
*6410 xofiller!SHFILL1_RVT!x355400y469400
*6411 xofiller!SHFILL1_RVT!x356920y469400
*6412 xofiller!SHFILL1_RVT!x358440y469400
*6413 xofiller!SHFILL1_RVT!x359960y469400
*6414 xofiller!SHFILL1_RVT!x361480y469400
*6415 xofiller!SHFILL1_RVT!x363000y469400
*6416 xofiller!SHFILL1_RVT!x364520y469400
*6417 xofiller!SHFILL1_RVT!x366040y469400
*6418 xofiller!SHFILL1_RVT!x367560y469400
*6419 xofiller!SHFILL1_RVT!x369080y469400
*6420 xofiller!SHFILL1_RVT!x370600y469400
*6421 xofiller!SHFILL1_RVT!x372120y469400
*6422 xofiller!SHFILL1_RVT!x373640y469400
*6423 xofiller!SHFILL1_RVT!x375160y469400
*6424 xofiller!SHFILL1_RVT!x376680y469400
*6425 xofiller!SHFILL1_RVT!x378200y469400
*6426 xofiller!SHFILL1_RVT!x379720y469400
*6427 xofiller!SHFILL1_RVT!x381240y469400
*6428 xofiller!SHFILL1_RVT!x382760y469400
*6429 xofiller!SHFILL1_RVT!x384280y469400
*6430 xofiller!SHFILL1_RVT!x385800y469400
*6431 xofiller!SHFILL1_RVT!x387320y469400
*6432 xofiller!SHFILL1_RVT!x388840y469400
*6433 xofiller!SHFILL1_RVT!x390360y469400
*6434 xofiller!SHFILL1_RVT!x391880y469400
*6435 xofiller!SHFILL1_RVT!x393400y469400
*6436 xofiller!SHFILL1_RVT!x402520y469400
*6437 xofiller!SHFILL1_RVT!x404040y469400
*6438 xofiller!SHFILL1_RVT!x405560y469400
*6439 xofiller!SHFILL1_RVT!x407080y469400
*6440 xofiller!SHFILL1_RVT!x408600y469400
*6441 xofiller!SHFILL1_RVT!x410120y469400
*6442 xofiller!SHFILL1_RVT!x411640y469400
*6443 xofiller!SHFILL1_RVT!x413160y469400
*6444 xofiller!SHFILL1_RVT!x414680y469400
*6445 xofiller!SHFILL1_RVT!x416200y469400
*6446 xofiller!SHFILL1_RVT!x417720y469400
*6447 xofiller!SHFILL1_RVT!x419240y469400
*6448 xofiller!SHFILL1_RVT!x420760y469400
*6449 xofiller!SHFILL1_RVT!x440520y469400
*6450 xofiller!SHFILL1_RVT!x442040y469400
*6451 xofiller!SHFILL1_RVT!x443560y469400
*6452 xofiller!SHFILL1_RVT!x445080y469400
*6453 xofiller!SHFILL1_RVT!x446600y469400
*6454 xofiller!SHFILL1_RVT!x448120y469400
*6455 xofiller!SHFILL1_RVT!x449640y469400
*6456 xofiller!SHFILL1_RVT!x451160y469400
*6457 xofiller!SHFILL1_RVT!x452680y469400
*6458 xofiller!SHFILL1_RVT!x454200y469400
*6459 xofiller!SHFILL1_RVT!x455720y469400
*6460 xofiller!SHFILL1_RVT!x469400y469400
*6461 xofiller!SHFILL1_RVT!x470920y469400
*6462 xofiller!SHFILL1_RVT!x472440y469400
*6463 xofiller!SHFILL1_RVT!x473960y469400
*6464 xofiller!SHFILL1_RVT!x475480y469400
*6465 xofiller!SHFILL1_RVT!x477000y469400
*6466 xofiller!SHFILL1_RVT!x478520y469400
*6467 xofiller!SHFILL1_RVT!x480040y469400
*6468 xofiller!SHFILL1_RVT!x481560y469400
*6469 xofiller!SHFILL1_RVT!x483080y469400
*6470 xofiller!SHFILL1_RVT!x484600y469400
*6471 xofiller!SHFILL1_RVT!x486120y469400
*6472 xofiller!SHFILL1_RVT!x487640y469400
*6473 xofiller!SHFILL1_RVT!x489160y469400
*6474 xofiller!SHFILL1_RVT!x490680y469400
*6475 xofiller!SHFILL1_RVT!x492200y469400
*6476 xofiller!SHFILL1_RVT!x493720y469400
*6477 xofiller!SHFILL1_RVT!x495240y469400
*6478 xofiller!SHFILL1_RVT!x496760y469400
*6479 xofiller!SHFILL1_RVT!x498280y469400
*6480 xofiller!SHFILL1_RVT!x499800y469400
*6481 xofiller!SHFILL1_RVT!x501320y469400
*6482 xofiller!SHFILL1_RVT!x502840y469400
*6483 xofiller!SHFILL1_RVT!x504360y469400
*6484 xofiller!SHFILL1_RVT!x505880y469400
*6485 xofiller!SHFILL1_RVT!x507400y469400
*6486 xofiller!SHFILL1_RVT!x508920y469400
*6487 xofiller!SHFILL1_RVT!x510440y469400
*6488 xofiller!SHFILL1_RVT!x511960y469400
*6489 xofiller!SHFILL1_RVT!x513480y469400
*6490 xofiller!SHFILL1_RVT!x515000y469400
*6491 xofiller!SHFILL1_RVT!x516520y469400
*6492 xofiller!SHFILL1_RVT!x518040y469400
*6493 xofiller!SHFILL1_RVT!x527160y469400
*6494 xofiller!SHFILL1_RVT!x528680y469400
*6495 xofiller!SHFILL1_RVT!x530200y469400
*6496 xofiller!SHFILL1_RVT!x531720y469400
*6497 xofiller!SHFILL1_RVT!x533240y469400
*6498 xofiller!SHFILL1_RVT!x534760y469400
*6499 xofiller!SHFILL1_RVT!x536280y469400
*6500 xofiller!SHFILL1_RVT!x537800y469400
*6501 xofiller!SHFILL1_RVT!x539320y469400
*6502 xofiller!SHFILL1_RVT!x540840y469400
*6503 xofiller!SHFILL1_RVT!x542360y469400
*6504 xofiller!SHFILL1_RVT!x543880y469400
*6505 xofiller!SHFILL1_RVT!x545400y469400
*6506 xofiller!SHFILL1_RVT!x562120y469400
*6507 xofiller!SHFILL1_RVT!x563640y469400
*6508 xofiller!SHFILL1_RVT!x565160y469400
*6509 xofiller!SHFILL1_RVT!x566680y469400
*6510 xofiller!SHFILL1_RVT!x568200y469400
*6511 xofiller!SHFILL1_RVT!x595560y469400
*6512 xofiller!SHFILL1_RVT!x597080y469400
*6513 xofiller!SHFILL1_RVT!x598600y469400
*6514 xofiller!SHFILL1_RVT!x600120y469400
*6515 xofiller!SHFILL1_RVT!x601640y469400
*6516 xofiller!SHFILL1_RVT!x603160y469400
*6517 xofiller!SHFILL1_RVT!x604680y469400
*6518 xofiller!SHFILL1_RVT!x606200y469400
*6519 xofiller!SHFILL1_RVT!x607720y469400
*6520 xofiller!SHFILL1_RVT!x609240y469400
*6521 xofiller!SHFILL1_RVT!x610760y469400
*6522 xofiller!SHFILL1_RVT!x612280y469400
*6523 xofiller!SHFILL1_RVT!x613800y469400
*6524 xofiller!SHFILL1_RVT!x615320y469400
*6525 xofiller!SHFILL1_RVT!x616840y469400
*6526 xofiller!SHFILL1_RVT!x618360y469400
*6527 xofiller!SHFILL1_RVT!x619880y469400
*6528 xofiller!SHFILL1_RVT!x621400y469400
*6529 xofiller!SHFILL1_RVT!x622920y469400
*6530 xofiller!SHFILL1_RVT!x624440y469400
*6531 xofiller!SHFILL1_RVT!x625960y469400
*6532 xofiller!SHFILL1_RVT!x639640y469400
*6533 xofiller!SHFILL1_RVT!x641160y469400
*6534 xofiller!SHFILL1_RVT!x642680y469400
*6535 xofiller!SHFILL1_RVT!x644200y469400
*6536 xofiller!SHFILL1_RVT!x645720y469400
*6537 xofiller!SHFILL1_RVT!x647240y469400
*6538 xofiller!SHFILL1_RVT!x648760y469400
*6539 xofiller!SHFILL1_RVT!x650280y469400
*6540 xofiller!SHFILL1_RVT!x651800y469400
*6541 xofiller!SHFILL1_RVT!x653320y469400
*6542 xofiller!SHFILL1_RVT!x654840y469400
*6543 xofiller!SHFILL1_RVT!x656360y469400
*6544 xofiller!SHFILL1_RVT!x657880y469400
*6545 xofiller!SHFILL1_RVT!x659400y469400
*6546 xofiller!SHFILL1_RVT!x660920y469400
*6547 xofiller!SHFILL1_RVT!x662440y469400
*6548 xofiller!SHFILL1_RVT!x663960y469400
*6549 xofiller!SHFILL1_RVT!x665480y469400
*6550 xofiller!SHFILL1_RVT!x667000y469400
*6551 xofiller!SHFILL1_RVT!x668520y469400
*6552 xofiller!SHFILL1_RVT!x670040y469400
*6553 xofiller!SHFILL1_RVT!x671560y469400
*6554 xofiller!SHFILL1_RVT!x673080y469400
*6555 xofiller!SHFILL1_RVT!x674600y469400
*6556 xofiller!SHFILL1_RVT!x676120y469400
*6557 xofiller!SHFILL1_RVT!x677640y469400
*6558 xofiller!SHFILL1_RVT!x679160y469400
*6559 xofiller!SHFILL1_RVT!x695880y469400
*6560 xofiller!SHFILL1_RVT!x697400y469400
*6561 xofiller!SHFILL1_RVT!x698920y469400
*6562 xofiller!SHFILL1_RVT!x700440y469400
*6563 xofiller!SHFILL1_RVT!x701960y469400
*6564 xofiller!SHFILL1_RVT!x703480y469400
*6565 xofiller!SHFILL1_RVT!x705000y469400
*6566 xofiller!SHFILL1_RVT!x706520y469400
*6567 xofiller!SHFILL1_RVT!x708040y469400
*6568 xofiller!SHFILL1_RVT!x709560y469400
*6569 xofiller!SHFILL1_RVT!x711080y469400
*6570 xofiller!SHFILL1_RVT!x712600y469400
*6571 xofiller!SHFILL1_RVT!x714120y469400
*6572 xofiller!SHFILL1_RVT!x715640y469400
*6573 xofiller!SHFILL1_RVT!x717160y469400
*6574 xofiller!SHFILL1_RVT!x718680y469400
*6575 xofiller!SHFILL1_RVT!x720200y469400
*6576 xofiller!SHFILL1_RVT!x721720y469400
*6577 xofiller!SHFILL1_RVT!x723240y469400
*6578 xofiller!SHFILL1_RVT!x732360y469400
*6579 xofiller!SHFILL1_RVT!x733880y469400
*6580 xofiller!SHFILL1_RVT!x735400y469400
*6581 xofiller!SHFILL1_RVT!x736920y469400
*6582 xofiller!SHFILL1_RVT!x738440y469400
*6583 xofiller!SHFILL1_RVT!x739960y469400
*6584 xofiller!SHFILL1_RVT!x741480y469400
*6585 xofiller!SHFILL1_RVT!x743000y469400
*6586 xofiller!SHFILL1_RVT!x744520y469400
*6587 xofiller!SHFILL1_RVT!x135000y486120
*6588 xofiller!SHFILL1_RVT!x136520y486120
*6589 xofiller!SHFILL1_RVT!x138040y486120
*6590 xofiller!SHFILL1_RVT!x139560y486120
*6591 xofiller!SHFILL1_RVT!x141080y486120
*6592 xofiller!SHFILL1_RVT!x142600y486120
*6593 xofiller!SHFILL1_RVT!x144120y486120
*6594 xofiller!SHFILL1_RVT!x145640y486120
*6595 xofiller!SHFILL1_RVT!x147160y486120
*6596 xofiller!SHFILL1_RVT!x148680y486120
*6597 xofiller!SHFILL1_RVT!x150200y486120
*6598 xofiller!SHFILL1_RVT!x151720y486120
*6599 xofiller!SHFILL1_RVT!x153240y486120
*6600 xofiller!SHFILL1_RVT!x154760y486120
*6601 xofiller!SHFILL1_RVT!x156280y486120
*6602 xofiller!SHFILL1_RVT!x157800y486120
*6603 xofiller!SHFILL1_RVT!x159320y486120
*6604 xofiller!SHFILL1_RVT!x160840y486120
*6605 xofiller!SHFILL1_RVT!x162360y486120
*6606 xofiller!SHFILL1_RVT!x163880y486120
*6607 xofiller!SHFILL1_RVT!x165400y486120
*6608 xofiller!SHFILL1_RVT!x166920y486120
*6609 xofiller!SHFILL1_RVT!x168440y486120
*6610 xofiller!SHFILL1_RVT!x169960y486120
*6611 xofiller!SHFILL1_RVT!x171480y486120
*6612 xofiller!SHFILL1_RVT!x173000y486120
*6613 xofiller!SHFILL1_RVT!x174520y486120
*6614 xofiller!SHFILL1_RVT!x176040y486120
*6615 xofiller!SHFILL1_RVT!x177560y486120
*6616 xofiller!SHFILL1_RVT!x179080y486120
*6617 xofiller!SHFILL1_RVT!x180600y486120
*6618 xofiller!SHFILL1_RVT!x182120y486120
*6619 xofiller!SHFILL1_RVT!x183640y486120
*6620 xofiller!SHFILL1_RVT!x185160y486120
*6621 xofiller!SHFILL1_RVT!x186680y486120
*6622 xofiller!SHFILL1_RVT!x188200y486120
*6623 xofiller!SHFILL1_RVT!x189720y486120
*6624 xofiller!SHFILL1_RVT!x191240y486120
*6625 xofiller!SHFILL1_RVT!x192760y486120
*6626 xofiller!SHFILL1_RVT!x194280y486120
*6627 xofiller!SHFILL1_RVT!x195800y486120
*6628 xofiller!SHFILL1_RVT!x197320y486120
*6629 xofiller!SHFILL1_RVT!x198840y486120
*6630 xofiller!SHFILL1_RVT!x200360y486120
*6631 xofiller!SHFILL1_RVT!x201880y486120
*6632 xofiller!SHFILL1_RVT!x203400y486120
*6633 xofiller!SHFILL1_RVT!x204920y486120
*6634 xofiller!SHFILL1_RVT!x206440y486120
*6635 xofiller!SHFILL1_RVT!x207960y486120
*6636 xofiller!SHFILL1_RVT!x209480y486120
*6637 xofiller!SHFILL1_RVT!x211000y486120
*6638 xofiller!SHFILL1_RVT!x212520y486120
*6639 xofiller!SHFILL1_RVT!x214040y486120
*6640 xofiller!SHFILL1_RVT!x215560y486120
*6641 xofiller!SHFILL1_RVT!x217080y486120
*6642 xofiller!SHFILL1_RVT!x249000y486120
*6643 xofiller!SHFILL1_RVT!x250520y486120
*6644 xofiller!SHFILL1_RVT!x252040y486120
*6645 xofiller!SHFILL1_RVT!x253560y486120
*6646 xofiller!SHFILL1_RVT!x255080y486120
*6647 xofiller!SHFILL1_RVT!x256600y486120
*6648 xofiller!SHFILL1_RVT!x258120y486120
*6649 xofiller!SHFILL1_RVT!x259640y486120
*6650 xofiller!SHFILL1_RVT!x261160y486120
*6651 xofiller!SHFILL1_RVT!x262680y486120
*6652 xofiller!SHFILL1_RVT!x264200y486120
*6653 xofiller!SHFILL1_RVT!x265720y486120
*6654 xofiller!SHFILL1_RVT!x267240y486120
*6655 xofiller!SHFILL1_RVT!x268760y486120
*6656 xofiller!SHFILL1_RVT!x270280y486120
*6657 xofiller!SHFILL1_RVT!x271800y486120
*6658 xofiller!SHFILL1_RVT!x273320y486120
*6659 xofiller!SHFILL1_RVT!x274840y486120
*6660 xofiller!SHFILL1_RVT!x276360y486120
*6661 xofiller!SHFILL1_RVT!x277880y486120
*6662 xofiller!SHFILL1_RVT!x279400y486120
*6663 xofiller!SHFILL1_RVT!x280920y486120
*6664 xofiller!SHFILL1_RVT!x303720y486120
*6665 xofiller!SHFILL1_RVT!x305240y486120
*6666 xofiller!SHFILL1_RVT!x306760y486120
*6667 xofiller!SHFILL1_RVT!x308280y486120
*6668 xofiller!SHFILL1_RVT!x309800y486120
*6669 xofiller!SHFILL1_RVT!x311320y486120
*6670 xofiller!SHFILL1_RVT!x312840y486120
*6671 xofiller!SHFILL1_RVT!x314360y486120
*6672 xofiller!SHFILL1_RVT!x315880y486120
*6673 xofiller!SHFILL1_RVT!x317400y486120
*6674 xofiller!SHFILL1_RVT!x318920y486120
*6675 xofiller!SHFILL1_RVT!x320440y486120
*6676 xofiller!SHFILL1_RVT!x321960y486120
*6677 xofiller!SHFILL1_RVT!x323480y486120
*6678 xofiller!SHFILL1_RVT!x325000y486120
*6679 xofiller!SHFILL1_RVT!x326520y486120
*6680 xofiller!SHFILL1_RVT!x328040y486120
*6681 xofiller!SHFILL1_RVT!x346280y486120
*6682 xofiller!SHFILL1_RVT!x347800y486120
*6683 xofiller!SHFILL1_RVT!x349320y486120
*6684 xofiller!SHFILL1_RVT!x363000y486120
*6685 xofiller!SHFILL1_RVT!x364520y486120
*6686 xofiller!SHFILL1_RVT!x366040y486120
*6687 xofiller!SHFILL1_RVT!x367560y486120
*6688 xofiller!SHFILL1_RVT!x369080y486120
*6689 xofiller!SHFILL1_RVT!x370600y486120
*6690 xofiller!SHFILL1_RVT!x372120y486120
*6691 xofiller!SHFILL1_RVT!x373640y486120
*6692 xofiller!SHFILL1_RVT!x375160y486120
*6693 xofiller!SHFILL1_RVT!x376680y486120
*6694 xofiller!SHFILL1_RVT!x378200y486120
*6695 xofiller!SHFILL1_RVT!x379720y486120
*6696 xofiller!SHFILL1_RVT!x381240y486120
*6697 xofiller!SHFILL1_RVT!x382760y486120
*6698 xofiller!SHFILL1_RVT!x391880y486120
*6699 xofiller!SHFILL1_RVT!x393400y486120
*6700 xofiller!SHFILL1_RVT!x394920y486120
*6701 xofiller!SHFILL1_RVT!x396440y486120
*6702 xofiller!SHFILL1_RVT!x397960y486120
*6703 xofiller!SHFILL1_RVT!x399480y486120
*6704 xofiller!SHFILL1_RVT!x401000y486120
*6705 xofiller!SHFILL1_RVT!x402520y486120
*6706 xofiller!SHFILL1_RVT!x404040y486120
*6707 xofiller!SHFILL1_RVT!x405560y486120
*6708 xofiller!SHFILL1_RVT!x407080y486120
*6709 xofiller!SHFILL1_RVT!x408600y486120
*6710 xofiller!SHFILL1_RVT!x422280y486120
*6711 xofiller!SHFILL1_RVT!x423800y486120
*6712 xofiller!SHFILL1_RVT!x425320y486120
*6713 xofiller!SHFILL1_RVT!x426840y486120
*6714 xofiller!SHFILL1_RVT!x428360y486120
*6715 xofiller!SHFILL1_RVT!x429880y486120
*6716 xofiller!SHFILL1_RVT!x431400y486120
*6717 xofiller!SHFILL1_RVT!x432920y486120
*6718 xofiller!SHFILL1_RVT!x434440y486120
*6719 xofiller!SHFILL1_RVT!x435960y486120
*6720 xofiller!SHFILL1_RVT!x437480y486120
*6721 xofiller!SHFILL1_RVT!x439000y486120
*6722 xofiller!SHFILL1_RVT!x440520y486120
*6723 xofiller!SHFILL1_RVT!x442040y486120
*6724 xofiller!SHFILL1_RVT!x443560y486120
*6725 xofiller!SHFILL1_RVT!x445080y486120
*6726 xofiller!SHFILL1_RVT!x446600y486120
*6727 xofiller!SHFILL1_RVT!x448120y486120
*6728 xofiller!SHFILL1_RVT!x449640y486120
*6729 xofiller!SHFILL1_RVT!x451160y486120
*6730 xofiller!SHFILL1_RVT!x452680y486120
*6731 xofiller!SHFILL1_RVT!x454200y486120
*6732 xofiller!SHFILL1_RVT!x455720y486120
*6733 xofiller!SHFILL1_RVT!x457240y486120
*6734 xofiller!SHFILL1_RVT!x458760y486120
*6735 xofiller!SHFILL1_RVT!x460280y486120
*6736 xofiller!SHFILL1_RVT!x473960y486120
*6737 xofiller!SHFILL1_RVT!x475480y486120
*6738 xofiller!SHFILL1_RVT!x477000y486120
*6739 xofiller!SHFILL1_RVT!x478520y486120
*6740 xofiller!SHFILL1_RVT!x480040y486120
*6741 xofiller!SHFILL1_RVT!x481560y486120
*6742 xofiller!SHFILL1_RVT!x483080y486120
*6743 xofiller!SHFILL1_RVT!x484600y486120
*6744 xofiller!SHFILL1_RVT!x486120y486120
*6745 xofiller!SHFILL1_RVT!x487640y486120
*6746 xofiller!SHFILL1_RVT!x489160y486120
*6747 xofiller!SHFILL1_RVT!x490680y486120
*6748 xofiller!SHFILL1_RVT!x504360y486120
*6749 xofiller!SHFILL1_RVT!x505880y486120
*6750 xofiller!SHFILL1_RVT!x507400y486120
*6751 xofiller!SHFILL1_RVT!x508920y486120
*6752 xofiller!SHFILL1_RVT!x510440y486120
*6753 xofiller!SHFILL1_RVT!x511960y486120
*6754 xofiller!SHFILL1_RVT!x513480y486120
*6755 xofiller!SHFILL1_RVT!x515000y486120
*6756 xofiller!SHFILL1_RVT!x516520y486120
*6757 xofiller!SHFILL1_RVT!x518040y486120
*6758 xofiller!SHFILL1_RVT!x519560y486120
*6759 xofiller!SHFILL1_RVT!x521080y486120
*6760 xofiller!SHFILL1_RVT!x522600y486120
*6761 xofiller!SHFILL1_RVT!x524120y486120
*6762 xofiller!SHFILL1_RVT!x525640y486120
*6763 xofiller!SHFILL1_RVT!x527160y486120
*6764 xofiller!SHFILL1_RVT!x528680y486120
*6765 xofiller!SHFILL1_RVT!x530200y486120
*6766 xofiller!SHFILL1_RVT!x531720y486120
*6767 xofiller!SHFILL1_RVT!x533240y486120
*6768 xofiller!SHFILL1_RVT!x534760y486120
*6769 xofiller!SHFILL1_RVT!x536280y486120
*6770 xofiller!SHFILL1_RVT!x537800y486120
*6771 xofiller!SHFILL1_RVT!x539320y486120
*6772 xofiller!SHFILL1_RVT!x540840y486120
*6773 xofiller!SHFILL1_RVT!x542360y486120
*6774 xofiller!SHFILL1_RVT!x543880y486120
*6775 xofiller!SHFILL1_RVT!x545400y486120
*6776 xofiller!SHFILL1_RVT!x546920y486120
*6777 xofiller!SHFILL1_RVT!x548440y486120
*6778 xofiller!SHFILL1_RVT!x549960y486120
*6779 xofiller!SHFILL1_RVT!x551480y486120
*6780 xofiller!SHFILL1_RVT!x553000y486120
*6781 xofiller!SHFILL1_RVT!x554520y486120
*6782 xofiller!SHFILL1_RVT!x556040y486120
*6783 xofiller!SHFILL1_RVT!x557560y486120
*6784 xofiller!SHFILL1_RVT!x559080y486120
*6785 xofiller!SHFILL1_RVT!x560600y486120
*6786 xofiller!SHFILL1_RVT!x562120y486120
*6787 xofiller!SHFILL1_RVT!x563640y486120
*6788 xofiller!SHFILL1_RVT!x565160y486120
*6789 xofiller!SHFILL1_RVT!x566680y486120
*6790 xofiller!SHFILL1_RVT!x568200y486120
*6791 xofiller!SHFILL1_RVT!x569720y486120
*6792 xofiller!SHFILL1_RVT!x571240y486120
*6793 xofiller!SHFILL1_RVT!x572760y486120
*6794 xofiller!SHFILL1_RVT!x574280y486120
*6795 xofiller!SHFILL1_RVT!x575800y486120
*6796 xofiller!SHFILL1_RVT!x577320y486120
*6797 xofiller!SHFILL1_RVT!x578840y486120
*6798 xofiller!SHFILL1_RVT!x580360y486120
*6799 xofiller!SHFILL1_RVT!x581880y486120
*6800 xofiller!SHFILL1_RVT!x583400y486120
*6801 xofiller!SHFILL1_RVT!x584920y486120
*6802 xofiller!SHFILL1_RVT!x586440y486120
*6803 xofiller!SHFILL1_RVT!x587960y486120
*6804 xofiller!SHFILL1_RVT!x589480y486120
*6805 xofiller!SHFILL1_RVT!x591000y486120
*6806 xofiller!SHFILL1_RVT!x592520y486120
*6807 xofiller!SHFILL1_RVT!x636600y486120
*6808 xofiller!SHFILL1_RVT!x638120y486120
*6809 xofiller!SHFILL1_RVT!x639640y486120
*6810 xofiller!SHFILL1_RVT!x641160y486120
*6811 xofiller!SHFILL1_RVT!x642680y486120
*6812 xofiller!SHFILL1_RVT!x644200y486120
*6813 xofiller!SHFILL1_RVT!x645720y486120
*6814 xofiller!SHFILL1_RVT!x647240y486120
*6815 xofiller!SHFILL1_RVT!x648760y486120
*6816 xofiller!SHFILL1_RVT!x650280y486120
*6817 xofiller!SHFILL1_RVT!x651800y486120
*6818 xofiller!SHFILL1_RVT!x653320y486120
*6819 xofiller!SHFILL1_RVT!x654840y486120
*6820 xofiller!SHFILL1_RVT!x656360y486120
*6821 xofiller!SHFILL1_RVT!x657880y486120
*6822 xofiller!SHFILL1_RVT!x659400y486120
*6823 xofiller!SHFILL1_RVT!x660920y486120
*6824 xofiller!SHFILL1_RVT!x662440y486120
*6825 xofiller!SHFILL1_RVT!x663960y486120
*6826 xofiller!SHFILL1_RVT!x665480y486120
*6827 xofiller!SHFILL1_RVT!x667000y486120
*6828 xofiller!SHFILL1_RVT!x668520y486120
*6829 xofiller!SHFILL1_RVT!x670040y486120
*6830 xofiller!SHFILL1_RVT!x671560y486120
*6831 xofiller!SHFILL1_RVT!x673080y486120
*6832 xofiller!SHFILL1_RVT!x674600y486120
*6833 xofiller!SHFILL1_RVT!x676120y486120
*6834 xofiller!SHFILL1_RVT!x677640y486120
*6835 xofiller!SHFILL1_RVT!x679160y486120
*6836 xofiller!SHFILL1_RVT!x680680y486120
*6837 xofiller!SHFILL1_RVT!x682200y486120
*6838 xofiller!SHFILL1_RVT!x683720y486120
*6839 xofiller!SHFILL1_RVT!x685240y486120
*6840 xofiller!SHFILL1_RVT!x686760y486120
*6841 xofiller!SHFILL1_RVT!x688280y486120
*6842 xofiller!SHFILL1_RVT!x689800y486120
*6843 xofiller!SHFILL1_RVT!x691320y486120
*6844 xofiller!SHFILL1_RVT!x692840y486120
*6845 xofiller!SHFILL1_RVT!x694360y486120
*6846 xofiller!SHFILL1_RVT!x695880y486120
*6847 xofiller!SHFILL1_RVT!x697400y486120
*6848 xofiller!SHFILL1_RVT!x698920y486120
*6849 xofiller!SHFILL1_RVT!x700440y486120
*6850 xofiller!SHFILL1_RVT!x701960y486120
*6851 xofiller!SHFILL1_RVT!x703480y486120
*6852 xofiller!SHFILL1_RVT!x705000y486120
*6853 xofiller!SHFILL1_RVT!x706520y486120
*6854 xofiller!SHFILL1_RVT!x708040y486120
*6855 xofiller!SHFILL1_RVT!x709560y486120
*6856 xofiller!SHFILL1_RVT!x711080y486120
*6857 xofiller!SHFILL1_RVT!x712600y486120
*6858 xofiller!SHFILL1_RVT!x714120y486120
*6859 xofiller!SHFILL1_RVT!x715640y486120
*6860 xofiller!SHFILL1_RVT!x717160y486120
*6861 xofiller!SHFILL1_RVT!x718680y486120
*6862 xofiller!SHFILL1_RVT!x720200y486120
*6863 xofiller!SHFILL1_RVT!x721720y486120
*6864 xofiller!SHFILL1_RVT!x723240y486120
*6865 xofiller!SHFILL1_RVT!x724760y486120
*6866 xofiller!SHFILL1_RVT!x726280y486120
*6867 xofiller!SHFILL1_RVT!x727800y486120
*6868 xofiller!SHFILL1_RVT!x729320y486120
*6869 xofiller!SHFILL1_RVT!x730840y486120
*6870 xofiller!SHFILL1_RVT!x732360y486120
*6871 xofiller!SHFILL1_RVT!x733880y486120
*6872 xofiller!SHFILL1_RVT!x735400y486120
*6873 xofiller!SHFILL1_RVT!x736920y486120
*6874 xofiller!SHFILL1_RVT!x738440y486120
*6875 xofiller!SHFILL1_RVT!x739960y486120
*6876 xofiller!SHFILL1_RVT!x741480y486120
*6877 xofiller!SHFILL1_RVT!x743000y486120
*6878 xofiller!SHFILL1_RVT!x744520y486120
*6879 xofiller!SHFILL1_RVT!x135000y502840
*6880 xofiller!SHFILL1_RVT!x136520y502840
*6881 xofiller!SHFILL1_RVT!x138040y502840
*6882 xofiller!SHFILL1_RVT!x139560y502840
*6883 xofiller!SHFILL1_RVT!x141080y502840
*6884 xofiller!SHFILL1_RVT!x142600y502840
*6885 xofiller!SHFILL1_RVT!x144120y502840
*6886 xofiller!SHFILL1_RVT!x145640y502840
*6887 xofiller!SHFILL1_RVT!x147160y502840
*6888 xofiller!SHFILL1_RVT!x148680y502840
*6889 xofiller!SHFILL1_RVT!x150200y502840
*6890 xofiller!SHFILL1_RVT!x151720y502840
*6891 xofiller!SHFILL1_RVT!x153240y502840
*6892 xofiller!SHFILL1_RVT!x154760y502840
*6893 xofiller!SHFILL1_RVT!x156280y502840
*6894 xofiller!SHFILL1_RVT!x157800y502840
*6895 xofiller!SHFILL1_RVT!x159320y502840
*6896 xofiller!SHFILL1_RVT!x160840y502840
*6897 xofiller!SHFILL1_RVT!x162360y502840
*6898 xofiller!SHFILL1_RVT!x163880y502840
*6899 xofiller!SHFILL1_RVT!x165400y502840
*6900 xofiller!SHFILL1_RVT!x166920y502840
*6901 xofiller!SHFILL1_RVT!x168440y502840
*6902 xofiller!SHFILL1_RVT!x169960y502840
*6903 xofiller!SHFILL1_RVT!x171480y502840
*6904 xofiller!SHFILL1_RVT!x173000y502840
*6905 xofiller!SHFILL1_RVT!x174520y502840
*6906 xofiller!SHFILL1_RVT!x176040y502840
*6907 xofiller!SHFILL1_RVT!x177560y502840
*6908 xofiller!SHFILL1_RVT!x179080y502840
*6909 xofiller!SHFILL1_RVT!x180600y502840
*6910 xofiller!SHFILL1_RVT!x182120y502840
*6911 xofiller!SHFILL1_RVT!x183640y502840
*6912 xofiller!SHFILL1_RVT!x185160y502840
*6913 xofiller!SHFILL1_RVT!x186680y502840
*6914 xofiller!SHFILL1_RVT!x188200y502840
*6915 xofiller!SHFILL1_RVT!x189720y502840
*6916 xofiller!SHFILL1_RVT!x191240y502840
*6917 xofiller!SHFILL1_RVT!x192760y502840
*6918 xofiller!SHFILL1_RVT!x194280y502840
*6919 xofiller!SHFILL1_RVT!x195800y502840
*6920 xofiller!SHFILL1_RVT!x197320y502840
*6921 xofiller!SHFILL1_RVT!x198840y502840
*6922 xofiller!SHFILL1_RVT!x242920y502840
*6923 xofiller!SHFILL1_RVT!x244440y502840
*6924 xofiller!SHFILL1_RVT!x245960y502840
*6925 xofiller!SHFILL1_RVT!x247480y502840
*6926 xofiller!SHFILL1_RVT!x249000y502840
*6927 xofiller!SHFILL1_RVT!x250520y502840
*6928 xofiller!SHFILL1_RVT!x261160y502840
*6929 xofiller!SHFILL1_RVT!x262680y502840
*6930 xofiller!SHFILL1_RVT!x264200y502840
*6931 xofiller!SHFILL1_RVT!x265720y502840
*6932 xofiller!SHFILL1_RVT!x267240y502840
*6933 xofiller!SHFILL1_RVT!x268760y502840
*6934 xofiller!SHFILL1_RVT!x270280y502840
*6935 xofiller!SHFILL1_RVT!x271800y502840
*6936 xofiller!SHFILL1_RVT!x273320y502840
*6937 xofiller!SHFILL1_RVT!x274840y502840
*6938 xofiller!SHFILL1_RVT!x276360y502840
*6939 xofiller!SHFILL1_RVT!x277880y502840
*6940 xofiller!SHFILL1_RVT!x279400y502840
*6941 xofiller!SHFILL1_RVT!x280920y502840
*6942 xofiller!SHFILL1_RVT!x282440y502840
*6943 xofiller!SHFILL1_RVT!x283960y502840
*6944 xofiller!SHFILL1_RVT!x285480y502840
*6945 xofiller!SHFILL1_RVT!x287000y502840
*6946 xofiller!SHFILL1_RVT!x288520y502840
*6947 xofiller!SHFILL1_RVT!x290040y502840
*6948 xofiller!SHFILL1_RVT!x291560y502840
*6949 xofiller!SHFILL1_RVT!x293080y502840
*6950 xofiller!SHFILL1_RVT!x294600y502840
*6951 xofiller!SHFILL1_RVT!x296120y502840
*6952 xofiller!SHFILL1_RVT!x297640y502840
*6953 xofiller!SHFILL1_RVT!x299160y502840
*6954 xofiller!SHFILL1_RVT!x300680y502840
*6955 xofiller!SHFILL1_RVT!x302200y502840
*6956 xofiller!SHFILL1_RVT!x303720y502840
*6957 xofiller!SHFILL1_RVT!x305240y502840
*6958 xofiller!SHFILL1_RVT!x306760y502840
*6959 xofiller!SHFILL1_RVT!x308280y502840
*6960 xofiller!SHFILL1_RVT!x309800y502840
*6961 xofiller!SHFILL1_RVT!x311320y502840
*6962 xofiller!SHFILL1_RVT!x312840y502840
*6963 xofiller!SHFILL1_RVT!x314360y502840
*6964 xofiller!SHFILL1_RVT!x315880y502840
*6965 xofiller!SHFILL1_RVT!x317400y502840
*6966 xofiller!SHFILL1_RVT!x318920y502840
*6967 xofiller!SHFILL1_RVT!x320440y502840
*6968 xofiller!SHFILL1_RVT!x321960y502840
*6969 xofiller!SHFILL1_RVT!x323480y502840
*6970 xofiller!SHFILL1_RVT!x338680y502840
*6971 xofiller!SHFILL1_RVT!x340200y502840
*6972 xofiller!SHFILL1_RVT!x341720y502840
*6973 xofiller!SHFILL1_RVT!x343240y502840
*6974 xofiller!SHFILL1_RVT!x344760y502840
*6975 xofiller!SHFILL1_RVT!x346280y502840
*6976 xofiller!SHFILL1_RVT!x347800y502840
*6977 xofiller!SHFILL1_RVT!x349320y502840
*6978 xofiller!SHFILL1_RVT!x350840y502840
*6979 xofiller!SHFILL1_RVT!x352360y502840
*6980 xofiller!SHFILL1_RVT!x353880y502840
*6981 xofiller!SHFILL1_RVT!x355400y502840
*6982 xofiller!SHFILL1_RVT!x356920y502840
*6983 xofiller!SHFILL1_RVT!x358440y502840
*6984 xofiller!SHFILL1_RVT!x359960y502840
*6985 xofiller!SHFILL1_RVT!x361480y502840
*6986 xofiller!SHFILL1_RVT!x363000y502840
*6987 xofiller!SHFILL1_RVT!x364520y502840
*6988 xofiller!SHFILL1_RVT!x366040y502840
*6989 xofiller!SHFILL1_RVT!x367560y502840
*6990 xofiller!SHFILL1_RVT!x369080y502840
*6991 xofiller!SHFILL1_RVT!x370600y502840
*6992 xofiller!SHFILL1_RVT!x372120y502840
*6993 xofiller!SHFILL1_RVT!x373640y502840
*6994 xofiller!SHFILL1_RVT!x375160y502840
*6995 xofiller!SHFILL1_RVT!x376680y502840
*6996 xofiller!SHFILL1_RVT!x378200y502840
*6997 xofiller!SHFILL1_RVT!x379720y502840
*6998 xofiller!SHFILL1_RVT!x381240y502840
*6999 xofiller!SHFILL1_RVT!x382760y502840
*7000 xofiller!SHFILL1_RVT!x384280y502840
*7001 xofiller!SHFILL1_RVT!x385800y502840
*7002 xofiller!SHFILL1_RVT!x387320y502840
*7003 xofiller!SHFILL1_RVT!x388840y502840
*7004 xofiller!SHFILL1_RVT!x390360y502840
*7005 xofiller!SHFILL1_RVT!x391880y502840
*7006 xofiller!SHFILL1_RVT!x393400y502840
*7007 xofiller!SHFILL1_RVT!x394920y502840
*7008 xofiller!SHFILL1_RVT!x396440y502840
*7009 xofiller!SHFILL1_RVT!x397960y502840
*7010 xofiller!SHFILL1_RVT!x399480y502840
*7011 xofiller!SHFILL1_RVT!x401000y502840
*7012 xofiller!SHFILL1_RVT!x402520y502840
*7013 xofiller!SHFILL1_RVT!x404040y502840
*7014 xofiller!SHFILL1_RVT!x405560y502840
*7015 xofiller!SHFILL1_RVT!x419240y502840
*7016 xofiller!SHFILL1_RVT!x420760y502840
*7017 xofiller!SHFILL1_RVT!x422280y502840
*7018 xofiller!SHFILL1_RVT!x423800y502840
*7019 xofiller!SHFILL1_RVT!x425320y502840
*7020 xofiller!SHFILL1_RVT!x426840y502840
*7021 xofiller!SHFILL1_RVT!x428360y502840
*7022 xofiller!SHFILL1_RVT!x429880y502840
*7023 xofiller!SHFILL1_RVT!x431400y502840
*7024 xofiller!SHFILL1_RVT!x432920y502840
*7025 xofiller!SHFILL1_RVT!x434440y502840
*7026 xofiller!SHFILL1_RVT!x443560y502840
*7027 xofiller!SHFILL1_RVT!x445080y502840
*7028 xofiller!SHFILL1_RVT!x446600y502840
*7029 xofiller!SHFILL1_RVT!x448120y502840
*7030 xofiller!SHFILL1_RVT!x449640y502840
*7031 xofiller!SHFILL1_RVT!x451160y502840
*7032 xofiller!SHFILL1_RVT!x452680y502840
*7033 xofiller!SHFILL1_RVT!x454200y502840
*7034 xofiller!SHFILL1_RVT!x455720y502840
*7035 xofiller!SHFILL1_RVT!x457240y502840
*7036 xofiller!SHFILL1_RVT!x458760y502840
*7037 xofiller!SHFILL1_RVT!x460280y502840
*7038 xofiller!SHFILL1_RVT!x461800y502840
*7039 xofiller!SHFILL1_RVT!x463320y502840
*7040 xofiller!SHFILL1_RVT!x464840y502840
*7041 xofiller!SHFILL1_RVT!x466360y502840
*7042 xofiller!SHFILL1_RVT!x483080y502840
*7043 xofiller!SHFILL1_RVT!x484600y502840
*7044 xofiller!SHFILL1_RVT!x486120y502840
*7045 xofiller!SHFILL1_RVT!x487640y502840
*7046 xofiller!SHFILL1_RVT!x489160y502840
*7047 xofiller!SHFILL1_RVT!x490680y502840
*7048 xofiller!SHFILL1_RVT!x492200y502840
*7049 xofiller!SHFILL1_RVT!x493720y502840
*7050 xofiller!SHFILL1_RVT!x495240y502840
*7051 xofiller!SHFILL1_RVT!x496760y502840
*7052 xofiller!SHFILL1_RVT!x498280y502840
*7053 xofiller!SHFILL1_RVT!x499800y502840
*7054 xofiller!SHFILL1_RVT!x501320y502840
*7055 xofiller!SHFILL1_RVT!x502840y502840
*7056 xofiller!SHFILL1_RVT!x504360y502840
*7057 xofiller!SHFILL1_RVT!x505880y502840
*7058 xofiller!SHFILL1_RVT!x515000y502840
*7059 xofiller!SHFILL1_RVT!x516520y502840
*7060 xofiller!SHFILL1_RVT!x518040y502840
*7061 xofiller!SHFILL1_RVT!x519560y502840
*7062 xofiller!SHFILL1_RVT!x521080y502840
*7063 xofiller!SHFILL1_RVT!x522600y502840
*7064 xofiller!SHFILL1_RVT!x524120y502840
*7065 xofiller!SHFILL1_RVT!x525640y502840
*7066 xofiller!SHFILL1_RVT!x527160y502840
*7067 xofiller!SHFILL1_RVT!x528680y502840
*7068 xofiller!SHFILL1_RVT!x530200y502840
*7069 xofiller!SHFILL1_RVT!x531720y502840
*7070 xofiller!SHFILL1_RVT!x533240y502840
*7071 xofiller!SHFILL1_RVT!x534760y502840
*7072 xofiller!SHFILL1_RVT!x536280y502840
*7073 xofiller!SHFILL1_RVT!x537800y502840
*7074 xofiller!SHFILL1_RVT!x539320y502840
*7075 xofiller!SHFILL1_RVT!x540840y502840
*7076 xofiller!SHFILL1_RVT!x542360y502840
*7077 xofiller!SHFILL1_RVT!x543880y502840
*7078 xofiller!SHFILL1_RVT!x545400y502840
*7079 xofiller!SHFILL1_RVT!x546920y502840
*7080 xofiller!SHFILL1_RVT!x548440y502840
*7081 xofiller!SHFILL1_RVT!x549960y502840
*7082 xofiller!SHFILL1_RVT!x551480y502840
*7083 xofiller!SHFILL1_RVT!x553000y502840
*7084 xofiller!SHFILL1_RVT!x554520y502840
*7085 xofiller!SHFILL1_RVT!x556040y502840
*7086 xofiller!SHFILL1_RVT!x557560y502840
*7087 xofiller!SHFILL1_RVT!x559080y502840
*7088 xofiller!SHFILL1_RVT!x560600y502840
*7089 xofiller!SHFILL1_RVT!x562120y502840
*7090 xofiller!SHFILL1_RVT!x563640y502840
*7091 xofiller!SHFILL1_RVT!x565160y502840
*7092 xofiller!SHFILL1_RVT!x566680y502840
*7093 xofiller!SHFILL1_RVT!x568200y502840
*7094 xofiller!SHFILL1_RVT!x569720y502840
*7095 xofiller!SHFILL1_RVT!x571240y502840
*7096 xofiller!SHFILL1_RVT!x572760y502840
*7097 xofiller!SHFILL1_RVT!x574280y502840
*7098 xofiller!SHFILL1_RVT!x575800y502840
*7099 xofiller!SHFILL1_RVT!x577320y502840
*7100 xofiller!SHFILL1_RVT!x578840y502840
*7101 xofiller!SHFILL1_RVT!x580360y502840
*7102 xofiller!SHFILL1_RVT!x581880y502840
*7103 xofiller!SHFILL1_RVT!x583400y502840
*7104 xofiller!SHFILL1_RVT!x584920y502840
*7105 xofiller!SHFILL1_RVT!x586440y502840
*7106 xofiller!SHFILL1_RVT!x587960y502840
*7107 xofiller!SHFILL1_RVT!x589480y502840
*7108 xofiller!SHFILL1_RVT!x591000y502840
*7109 xofiller!SHFILL1_RVT!x592520y502840
*7110 xofiller!SHFILL1_RVT!x594040y502840
*7111 xofiller!SHFILL1_RVT!x595560y502840
*7112 xofiller!SHFILL1_RVT!x597080y502840
*7113 xofiller!SHFILL1_RVT!x598600y502840
*7114 xofiller!SHFILL1_RVT!x600120y502840
*7115 xofiller!SHFILL1_RVT!x601640y502840
*7116 xofiller!SHFILL1_RVT!x603160y502840
*7117 xofiller!SHFILL1_RVT!x604680y502840
*7118 xofiller!SHFILL1_RVT!x606200y502840
*7119 xofiller!SHFILL1_RVT!x607720y502840
*7120 xofiller!SHFILL1_RVT!x609240y502840
*7121 xofiller!SHFILL1_RVT!x610760y502840
*7122 xofiller!SHFILL1_RVT!x612280y502840
*7123 xofiller!SHFILL1_RVT!x613800y502840
*7124 xofiller!SHFILL1_RVT!x615320y502840
*7125 xofiller!SHFILL1_RVT!x616840y502840
*7126 xofiller!SHFILL1_RVT!x618360y502840
*7127 xofiller!SHFILL1_RVT!x619880y502840
*7128 xofiller!SHFILL1_RVT!x621400y502840
*7129 xofiller!SHFILL1_RVT!x622920y502840
*7130 xofiller!SHFILL1_RVT!x624440y502840
*7131 xofiller!SHFILL1_RVT!x625960y502840
*7132 xofiller!SHFILL1_RVT!x627480y502840
*7133 xofiller!SHFILL1_RVT!x629000y502840
*7134 xofiller!SHFILL1_RVT!x630520y502840
*7135 xofiller!SHFILL1_RVT!x632040y502840
*7136 xofiller!SHFILL1_RVT!x633560y502840
*7137 xofiller!SHFILL1_RVT!x635080y502840
*7138 xofiller!SHFILL1_RVT!x636600y502840
*7139 xofiller!SHFILL1_RVT!x638120y502840
*7140 xofiller!SHFILL1_RVT!x639640y502840
*7141 xofiller!SHFILL1_RVT!x641160y502840
*7142 xofiller!SHFILL1_RVT!x642680y502840
*7143 xofiller!SHFILL1_RVT!x644200y502840
*7144 xofiller!SHFILL1_RVT!x645720y502840
*7145 xofiller!SHFILL1_RVT!x647240y502840
*7146 xofiller!SHFILL1_RVT!x648760y502840
*7147 xofiller!SHFILL1_RVT!x650280y502840
*7148 xofiller!SHFILL1_RVT!x659400y502840
*7149 xofiller!SHFILL1_RVT!x660920y502840
*7150 xofiller!SHFILL1_RVT!x662440y502840
*7151 xofiller!SHFILL1_RVT!x663960y502840
*7152 xofiller!SHFILL1_RVT!x665480y502840
*7153 xofiller!SHFILL1_RVT!x667000y502840
*7154 xofiller!SHFILL1_RVT!x668520y502840
*7155 xofiller!SHFILL1_RVT!x670040y502840
*7156 xofiller!SHFILL1_RVT!x671560y502840
*7157 xofiller!SHFILL1_RVT!x673080y502840
*7158 xofiller!SHFILL1_RVT!x674600y502840
*7159 xofiller!SHFILL1_RVT!x676120y502840
*7160 xofiller!SHFILL1_RVT!x677640y502840
*7161 xofiller!SHFILL1_RVT!x679160y502840
*7162 xofiller!SHFILL1_RVT!x680680y502840
*7163 xofiller!SHFILL1_RVT!x682200y502840
*7164 xofiller!SHFILL1_RVT!x683720y502840
*7165 xofiller!SHFILL1_RVT!x685240y502840
*7166 xofiller!SHFILL1_RVT!x686760y502840
*7167 xofiller!SHFILL1_RVT!x688280y502840
*7168 xofiller!SHFILL1_RVT!x689800y502840
*7169 xofiller!SHFILL1_RVT!x691320y502840
*7170 xofiller!SHFILL1_RVT!x692840y502840
*7171 xofiller!SHFILL1_RVT!x694360y502840
*7172 xofiller!SHFILL1_RVT!x695880y502840
*7173 xofiller!SHFILL1_RVT!x697400y502840
*7174 xofiller!SHFILL1_RVT!x698920y502840
*7175 xofiller!SHFILL1_RVT!x700440y502840
*7176 xofiller!SHFILL1_RVT!x701960y502840
*7177 xofiller!SHFILL1_RVT!x703480y502840
*7178 xofiller!SHFILL1_RVT!x705000y502840
*7179 xofiller!SHFILL1_RVT!x706520y502840
*7180 xofiller!SHFILL1_RVT!x708040y502840
*7181 xofiller!SHFILL1_RVT!x709560y502840
*7182 xofiller!SHFILL1_RVT!x711080y502840
*7183 xofiller!SHFILL1_RVT!x712600y502840
*7184 xofiller!SHFILL1_RVT!x714120y502840
*7185 xofiller!SHFILL1_RVT!x730840y502840
*7186 xofiller!SHFILL1_RVT!x732360y502840
*7187 xofiller!SHFILL1_RVT!x733880y502840
*7188 xofiller!SHFILL1_RVT!x735400y502840
*7189 xofiller!SHFILL1_RVT!x736920y502840
*7190 xofiller!SHFILL1_RVT!x738440y502840
*7191 xofiller!SHFILL1_RVT!x739960y502840
*7192 xofiller!SHFILL1_RVT!x741480y502840
*7193 xofiller!SHFILL1_RVT!x743000y502840
*7194 xofiller!SHFILL1_RVT!x744520y502840
*7195 xofiller!SHFILL1_RVT!x135000y519560
*7196 xofiller!SHFILL1_RVT!x136520y519560
*7197 xofiller!SHFILL1_RVT!x138040y519560
*7198 xofiller!SHFILL1_RVT!x139560y519560
*7199 xofiller!SHFILL1_RVT!x141080y519560
*7200 xofiller!SHFILL1_RVT!x142600y519560
*7201 xofiller!SHFILL1_RVT!x144120y519560
*7202 xofiller!SHFILL1_RVT!x145640y519560
*7203 xofiller!SHFILL1_RVT!x147160y519560
*7204 xofiller!SHFILL1_RVT!x148680y519560
*7205 xofiller!SHFILL1_RVT!x150200y519560
*7206 xofiller!SHFILL1_RVT!x151720y519560
*7207 xofiller!SHFILL1_RVT!x153240y519560
*7208 xofiller!SHFILL1_RVT!x154760y519560
*7209 xofiller!SHFILL1_RVT!x156280y519560
*7210 xofiller!SHFILL1_RVT!x157800y519560
*7211 xofiller!SHFILL1_RVT!x159320y519560
*7212 xofiller!SHFILL1_RVT!x160840y519560
*7213 xofiller!SHFILL1_RVT!x162360y519560
*7214 xofiller!SHFILL1_RVT!x163880y519560
*7215 xofiller!SHFILL1_RVT!x165400y519560
*7216 xofiller!SHFILL1_RVT!x166920y519560
*7217 xofiller!SHFILL1_RVT!x168440y519560
*7218 xofiller!SHFILL1_RVT!x169960y519560
*7219 xofiller!SHFILL1_RVT!x171480y519560
*7220 xofiller!SHFILL1_RVT!x173000y519560
*7221 xofiller!SHFILL1_RVT!x174520y519560
*7222 xofiller!SHFILL1_RVT!x176040y519560
*7223 xofiller!SHFILL1_RVT!x177560y519560
*7224 xofiller!SHFILL1_RVT!x179080y519560
*7225 xofiller!SHFILL1_RVT!x180600y519560
*7226 xofiller!SHFILL1_RVT!x182120y519560
*7227 xofiller!SHFILL1_RVT!x183640y519560
*7228 xofiller!SHFILL1_RVT!x185160y519560
*7229 xofiller!SHFILL1_RVT!x186680y519560
*7230 xofiller!SHFILL1_RVT!x188200y519560
*7231 xofiller!SHFILL1_RVT!x189720y519560
*7232 xofiller!SHFILL1_RVT!x191240y519560
*7233 xofiller!SHFILL1_RVT!x192760y519560
*7234 xofiller!SHFILL1_RVT!x194280y519560
*7235 xofiller!SHFILL1_RVT!x195800y519560
*7236 xofiller!SHFILL1_RVT!x197320y519560
*7237 xofiller!SHFILL1_RVT!x198840y519560
*7238 xofiller!SHFILL1_RVT!x200360y519560
*7239 xofiller!SHFILL1_RVT!x201880y519560
*7240 xofiller!SHFILL1_RVT!x203400y519560
*7241 xofiller!SHFILL1_RVT!x204920y519560
*7242 xofiller!SHFILL1_RVT!x206440y519560
*7243 xofiller!SHFILL1_RVT!x207960y519560
*7244 xofiller!SHFILL1_RVT!x209480y519560
*7245 xofiller!SHFILL1_RVT!x211000y519560
*7246 xofiller!SHFILL1_RVT!x212520y519560
*7247 xofiller!SHFILL1_RVT!x214040y519560
*7248 xofiller!SHFILL1_RVT!x215560y519560
*7249 xofiller!SHFILL1_RVT!x217080y519560
*7250 xofiller!SHFILL1_RVT!x218600y519560
*7251 xofiller!SHFILL1_RVT!x220120y519560
*7252 xofiller!SHFILL1_RVT!x221640y519560
*7253 xofiller!SHFILL1_RVT!x223160y519560
*7254 xofiller!SHFILL1_RVT!x224680y519560
*7255 xofiller!SHFILL1_RVT!x226200y519560
*7256 xofiller!SHFILL1_RVT!x227720y519560
*7257 xofiller!SHFILL1_RVT!x229240y519560
*7258 xofiller!SHFILL1_RVT!x230760y519560
*7259 xofiller!SHFILL1_RVT!x232280y519560
*7260 xofiller!SHFILL1_RVT!x233800y519560
*7261 xofiller!SHFILL1_RVT!x235320y519560
*7262 xofiller!SHFILL1_RVT!x236840y519560
*7263 xofiller!SHFILL1_RVT!x238360y519560
*7264 xofiller!SHFILL1_RVT!x239880y519560
*7265 xofiller!SHFILL1_RVT!x241400y519560
*7266 xofiller!SHFILL1_RVT!x242920y519560
*7267 xofiller!SHFILL1_RVT!x244440y519560
*7268 xofiller!SHFILL1_RVT!x245960y519560
*7269 xofiller!SHFILL1_RVT!x247480y519560
*7270 xofiller!SHFILL1_RVT!x249000y519560
*7271 xofiller!SHFILL1_RVT!x250520y519560
*7272 xofiller!SHFILL1_RVT!x252040y519560
*7273 xofiller!SHFILL1_RVT!x253560y519560
*7274 xofiller!SHFILL1_RVT!x255080y519560
*7275 xofiller!SHFILL1_RVT!x256600y519560
*7276 xofiller!SHFILL1_RVT!x258120y519560
*7277 xofiller!SHFILL1_RVT!x259640y519560
*7278 xofiller!SHFILL1_RVT!x261160y519560
*7279 xofiller!SHFILL1_RVT!x262680y519560
*7280 xofiller!SHFILL1_RVT!x264200y519560
*7281 xofiller!SHFILL1_RVT!x265720y519560
*7282 xofiller!SHFILL1_RVT!x267240y519560
*7283 xofiller!SHFILL1_RVT!x268760y519560
*7284 xofiller!SHFILL1_RVT!x270280y519560
*7285 xofiller!SHFILL1_RVT!x271800y519560
*7286 xofiller!SHFILL1_RVT!x273320y519560
*7287 xofiller!SHFILL1_RVT!x274840y519560
*7288 xofiller!SHFILL1_RVT!x276360y519560
*7289 xofiller!SHFILL1_RVT!x277880y519560
*7290 xofiller!SHFILL1_RVT!x279400y519560
*7291 xofiller!SHFILL1_RVT!x280920y519560
*7292 xofiller!SHFILL1_RVT!x282440y519560
*7293 xofiller!SHFILL1_RVT!x283960y519560
*7294 xofiller!SHFILL1_RVT!x285480y519560
*7295 xofiller!SHFILL1_RVT!x287000y519560
*7296 xofiller!SHFILL1_RVT!x302200y519560
*7297 xofiller!SHFILL1_RVT!x303720y519560
*7298 xofiller!SHFILL1_RVT!x305240y519560
*7299 xofiller!SHFILL1_RVT!x306760y519560
*7300 xofiller!SHFILL1_RVT!x308280y519560
*7301 xofiller!SHFILL1_RVT!x309800y519560
*7302 xofiller!SHFILL1_RVT!x311320y519560
*7303 xofiller!SHFILL1_RVT!x312840y519560
*7304 xofiller!SHFILL1_RVT!x314360y519560
*7305 xofiller!SHFILL1_RVT!x315880y519560
*7306 xofiller!SHFILL1_RVT!x317400y519560
*7307 xofiller!SHFILL1_RVT!x318920y519560
*7308 xofiller!SHFILL1_RVT!x320440y519560
*7309 xofiller!SHFILL1_RVT!x321960y519560
*7310 xofiller!SHFILL1_RVT!x323480y519560
*7311 xofiller!SHFILL1_RVT!x325000y519560
*7312 xofiller!SHFILL1_RVT!x326520y519560
*7313 xofiller!SHFILL1_RVT!x328040y519560
*7314 xofiller!SHFILL1_RVT!x329560y519560
*7315 xofiller!SHFILL1_RVT!x331080y519560
*7316 xofiller!SHFILL1_RVT!x332600y519560
*7317 xofiller!SHFILL1_RVT!x334120y519560
*7318 xofiller!SHFILL1_RVT!x335640y519560
*7319 xofiller!SHFILL1_RVT!x337160y519560
*7320 xofiller!SHFILL1_RVT!x338680y519560
*7321 xofiller!SHFILL1_RVT!x340200y519560
*7322 xofiller!SHFILL1_RVT!x341720y519560
*7323 xofiller!SHFILL1_RVT!x343240y519560
*7324 xofiller!SHFILL1_RVT!x344760y519560
*7325 xofiller!SHFILL1_RVT!x346280y519560
*7326 xofiller!SHFILL1_RVT!x347800y519560
*7327 xofiller!SHFILL1_RVT!x349320y519560
*7328 xofiller!SHFILL1_RVT!x350840y519560
*7329 xofiller!SHFILL1_RVT!x352360y519560
*7330 xofiller!SHFILL1_RVT!x353880y519560
*7331 xofiller!SHFILL1_RVT!x370600y519560
*7332 xofiller!SHFILL1_RVT!x372120y519560
*7333 xofiller!SHFILL1_RVT!x373640y519560
*7334 xofiller!SHFILL1_RVT!x375160y519560
*7335 xofiller!SHFILL1_RVT!x376680y519560
*7336 xofiller!SHFILL1_RVT!x378200y519560
*7337 xofiller!SHFILL1_RVT!x379720y519560
*7338 xofiller!SHFILL1_RVT!x381240y519560
*7339 xofiller!SHFILL1_RVT!x382760y519560
*7340 xofiller!SHFILL1_RVT!x384280y519560
*7341 xofiller!SHFILL1_RVT!x385800y519560
*7342 xofiller!SHFILL1_RVT!x387320y519560
*7343 xofiller!SHFILL1_RVT!x388840y519560
*7344 xofiller!SHFILL1_RVT!x390360y519560
*7345 xofiller!SHFILL1_RVT!x391880y519560
*7346 xofiller!SHFILL1_RVT!x393400y519560
*7347 xofiller!SHFILL1_RVT!x394920y519560
*7348 xofiller!SHFILL1_RVT!x396440y519560
*7349 xofiller!SHFILL1_RVT!x397960y519560
*7350 xofiller!SHFILL1_RVT!x399480y519560
*7351 xofiller!SHFILL1_RVT!x401000y519560
*7352 xofiller!SHFILL1_RVT!x402520y519560
*7353 xofiller!SHFILL1_RVT!x404040y519560
*7354 xofiller!SHFILL1_RVT!x405560y519560
*7355 xofiller!SHFILL1_RVT!x407080y519560
*7356 xofiller!SHFILL1_RVT!x408600y519560
*7357 xofiller!SHFILL1_RVT!x410120y519560
*7358 xofiller!SHFILL1_RVT!x411640y519560
*7359 xofiller!SHFILL1_RVT!x413160y519560
*7360 xofiller!SHFILL1_RVT!x414680y519560
*7361 xofiller!SHFILL1_RVT!x416200y519560
*7362 xofiller!SHFILL1_RVT!x417720y519560
*7363 xofiller!SHFILL1_RVT!x419240y519560
*7364 xofiller!SHFILL1_RVT!x420760y519560
*7365 xofiller!SHFILL1_RVT!x422280y519560
*7366 xofiller!SHFILL1_RVT!x423800y519560
*7367 xofiller!SHFILL1_RVT!x425320y519560
*7368 xofiller!SHFILL1_RVT!x426840y519560
*7369 xofiller!SHFILL1_RVT!x428360y519560
*7370 xofiller!SHFILL1_RVT!x429880y519560
*7371 xofiller!SHFILL1_RVT!x443560y519560
*7372 xofiller!SHFILL1_RVT!x445080y519560
*7373 xofiller!SHFILL1_RVT!x446600y519560
*7374 xofiller!SHFILL1_RVT!x448120y519560
*7375 xofiller!SHFILL1_RVT!x449640y519560
*7376 xofiller!SHFILL1_RVT!x451160y519560
*7377 xofiller!SHFILL1_RVT!x452680y519560
*7378 xofiller!SHFILL1_RVT!x454200y519560
*7379 xofiller!SHFILL1_RVT!x455720y519560
*7380 xofiller!SHFILL1_RVT!x457240y519560
*7381 xofiller!SHFILL1_RVT!x458760y519560
*7382 xofiller!SHFILL1_RVT!x460280y519560
*7383 xofiller!SHFILL1_RVT!x461800y519560
*7384 xofiller!SHFILL1_RVT!x463320y519560
*7385 xofiller!SHFILL1_RVT!x464840y519560
*7386 xofiller!SHFILL1_RVT!x466360y519560
*7387 xofiller!SHFILL1_RVT!x467880y519560
*7388 xofiller!SHFILL1_RVT!x469400y519560
*7389 xofiller!SHFILL1_RVT!x470920y519560
*7390 xofiller!SHFILL1_RVT!x472440y519560
*7391 xofiller!SHFILL1_RVT!x473960y519560
*7392 xofiller!SHFILL1_RVT!x475480y519560
*7393 xofiller!SHFILL1_RVT!x477000y519560
*7394 xofiller!SHFILL1_RVT!x478520y519560
*7395 xofiller!SHFILL1_RVT!x480040y519560
*7396 xofiller!SHFILL1_RVT!x481560y519560
*7397 xofiller!SHFILL1_RVT!x483080y519560
*7398 xofiller!SHFILL1_RVT!x484600y519560
*7399 xofiller!SHFILL1_RVT!x486120y519560
*7400 xofiller!SHFILL1_RVT!x487640y519560
*7401 xofiller!SHFILL1_RVT!x489160y519560
*7402 xofiller!SHFILL1_RVT!x490680y519560
*7403 xofiller!SHFILL1_RVT!x492200y519560
*7404 xofiller!SHFILL1_RVT!x493720y519560
*7405 xofiller!SHFILL1_RVT!x495240y519560
*7406 xofiller!SHFILL1_RVT!x496760y519560
*7407 xofiller!SHFILL1_RVT!x498280y519560
*7408 xofiller!SHFILL1_RVT!x499800y519560
*7409 xofiller!SHFILL1_RVT!x501320y519560
*7410 xofiller!SHFILL1_RVT!x502840y519560
*7411 xofiller!SHFILL1_RVT!x504360y519560
*7412 xofiller!SHFILL1_RVT!x505880y519560
*7413 xofiller!SHFILL1_RVT!x507400y519560
*7414 xofiller!SHFILL1_RVT!x508920y519560
*7415 xofiller!SHFILL1_RVT!x510440y519560
*7416 xofiller!SHFILL1_RVT!x511960y519560
*7417 xofiller!SHFILL1_RVT!x513480y519560
*7418 xofiller!SHFILL1_RVT!x515000y519560
*7419 xofiller!SHFILL1_RVT!x516520y519560
*7420 xofiller!SHFILL1_RVT!x518040y519560
*7421 xofiller!SHFILL1_RVT!x519560y519560
*7422 xofiller!SHFILL1_RVT!x521080y519560
*7423 xofiller!SHFILL1_RVT!x522600y519560
*7424 xofiller!SHFILL1_RVT!x524120y519560
*7425 xofiller!SHFILL1_RVT!x525640y519560
*7426 xofiller!SHFILL1_RVT!x527160y519560
*7427 xofiller!SHFILL1_RVT!x528680y519560
*7428 xofiller!SHFILL1_RVT!x530200y519560
*7429 xofiller!SHFILL1_RVT!x531720y519560
*7430 xofiller!SHFILL1_RVT!x533240y519560
*7431 xofiller!SHFILL1_RVT!x534760y519560
*7432 xofiller!SHFILL1_RVT!x536280y519560
*7433 xofiller!SHFILL1_RVT!x537800y519560
*7434 xofiller!SHFILL1_RVT!x539320y519560
*7435 xofiller!SHFILL1_RVT!x540840y519560
*7436 xofiller!SHFILL1_RVT!x542360y519560
*7437 xofiller!SHFILL1_RVT!x543880y519560
*7438 xofiller!SHFILL1_RVT!x545400y519560
*7439 xofiller!SHFILL1_RVT!x546920y519560
*7440 xofiller!SHFILL1_RVT!x548440y519560
*7441 xofiller!SHFILL1_RVT!x549960y519560
*7442 xofiller!SHFILL1_RVT!x551480y519560
*7443 xofiller!SHFILL1_RVT!x553000y519560
*7444 xofiller!SHFILL1_RVT!x554520y519560
*7445 xofiller!SHFILL1_RVT!x556040y519560
*7446 xofiller!SHFILL1_RVT!x557560y519560
*7447 xofiller!SHFILL1_RVT!x559080y519560
*7448 xofiller!SHFILL1_RVT!x560600y519560
*7449 xofiller!SHFILL1_RVT!x562120y519560
*7450 xofiller!SHFILL1_RVT!x563640y519560
*7451 xofiller!SHFILL1_RVT!x565160y519560
*7452 xofiller!SHFILL1_RVT!x566680y519560
*7453 xofiller!SHFILL1_RVT!x568200y519560
*7454 xofiller!SHFILL1_RVT!x569720y519560
*7455 xofiller!SHFILL1_RVT!x571240y519560
*7456 xofiller!SHFILL1_RVT!x572760y519560
*7457 xofiller!SHFILL1_RVT!x574280y519560
*7458 xofiller!SHFILL1_RVT!x575800y519560
*7459 xofiller!SHFILL1_RVT!x577320y519560
*7460 xofiller!SHFILL1_RVT!x578840y519560
*7461 xofiller!SHFILL1_RVT!x580360y519560
*7462 xofiller!SHFILL1_RVT!x581880y519560
*7463 xofiller!SHFILL1_RVT!x583400y519560
*7464 xofiller!SHFILL1_RVT!x584920y519560
*7465 xofiller!SHFILL1_RVT!x629000y519560
*7466 xofiller!SHFILL1_RVT!x630520y519560
*7467 xofiller!SHFILL1_RVT!x632040y519560
*7468 xofiller!SHFILL1_RVT!x633560y519560
*7469 xofiller!SHFILL1_RVT!x635080y519560
*7470 xofiller!SHFILL1_RVT!x636600y519560
*7471 xofiller!SHFILL1_RVT!x653320y519560
*7472 xofiller!SHFILL1_RVT!x654840y519560
*7473 xofiller!SHFILL1_RVT!x656360y519560
*7474 xofiller!SHFILL1_RVT!x657880y519560
*7475 xofiller!SHFILL1_RVT!x659400y519560
*7476 xofiller!SHFILL1_RVT!x660920y519560
*7477 xofiller!SHFILL1_RVT!x662440y519560
*7478 xofiller!SHFILL1_RVT!x663960y519560
*7479 xofiller!SHFILL1_RVT!x665480y519560
*7480 xofiller!SHFILL1_RVT!x667000y519560
*7481 xofiller!SHFILL1_RVT!x668520y519560
*7482 xofiller!SHFILL1_RVT!x670040y519560
*7483 xofiller!SHFILL1_RVT!x671560y519560
*7484 xofiller!SHFILL1_RVT!x673080y519560
*7485 xofiller!SHFILL1_RVT!x674600y519560
*7486 xofiller!SHFILL1_RVT!x676120y519560
*7487 xofiller!SHFILL1_RVT!x677640y519560
*7488 xofiller!SHFILL1_RVT!x679160y519560
*7489 xofiller!SHFILL1_RVT!x691320y519560
*7490 xofiller!SHFILL1_RVT!x692840y519560
*7491 xofiller!SHFILL1_RVT!x694360y519560
*7492 xofiller!SHFILL1_RVT!x695880y519560
*7493 xofiller!SHFILL1_RVT!x697400y519560
*7494 xofiller!SHFILL1_RVT!x698920y519560
*7495 xofiller!SHFILL1_RVT!x700440y519560
*7496 xofiller!SHFILL1_RVT!x701960y519560
*7497 xofiller!SHFILL1_RVT!x703480y519560
*7498 xofiller!SHFILL1_RVT!x705000y519560
*7499 xofiller!SHFILL1_RVT!x706520y519560
*7500 xofiller!SHFILL1_RVT!x708040y519560
*7501 xofiller!SHFILL1_RVT!x709560y519560
*7502 xofiller!SHFILL1_RVT!x711080y519560
*7503 xofiller!SHFILL1_RVT!x712600y519560
*7504 xofiller!SHFILL1_RVT!x714120y519560
*7505 xofiller!SHFILL1_RVT!x715640y519560
*7506 xofiller!SHFILL1_RVT!x717160y519560
*7507 xofiller!SHFILL1_RVT!x718680y519560
*7508 xofiller!SHFILL1_RVT!x727800y519560
*7509 xofiller!SHFILL1_RVT!x729320y519560
*7510 xofiller!SHFILL1_RVT!x730840y519560
*7511 xofiller!SHFILL1_RVT!x732360y519560
*7512 xofiller!SHFILL1_RVT!x733880y519560
*7513 xofiller!SHFILL1_RVT!x735400y519560
*7514 xofiller!SHFILL1_RVT!x736920y519560
*7515 xofiller!SHFILL1_RVT!x738440y519560
*7516 xofiller!SHFILL1_RVT!x739960y519560
*7517 xofiller!SHFILL1_RVT!x741480y519560
*7518 xofiller!SHFILL1_RVT!x743000y519560
*7519 xofiller!SHFILL1_RVT!x744520y519560
*7520 xofiller!SHFILL1_RVT!x135000y536280
*7521 xofiller!SHFILL1_RVT!x136520y536280
*7522 xofiller!SHFILL1_RVT!x138040y536280
*7523 xofiller!SHFILL1_RVT!x139560y536280
*7524 xofiller!SHFILL1_RVT!x141080y536280
*7525 xofiller!SHFILL1_RVT!x142600y536280
*7526 xofiller!SHFILL1_RVT!x144120y536280
*7527 xofiller!SHFILL1_RVT!x145640y536280
*7528 xofiller!SHFILL1_RVT!x147160y536280
*7529 xofiller!SHFILL1_RVT!x148680y536280
*7530 xofiller!SHFILL1_RVT!x150200y536280
*7531 xofiller!SHFILL1_RVT!x151720y536280
*7532 xofiller!SHFILL1_RVT!x165400y536280
*7533 xofiller!SHFILL1_RVT!x166920y536280
*7534 xofiller!SHFILL1_RVT!x168440y536280
*7535 xofiller!SHFILL1_RVT!x169960y536280
*7536 xofiller!SHFILL1_RVT!x171480y536280
*7537 xofiller!SHFILL1_RVT!x173000y536280
*7538 xofiller!SHFILL1_RVT!x174520y536280
*7539 xofiller!SHFILL1_RVT!x176040y536280
*7540 xofiller!SHFILL1_RVT!x177560y536280
*7541 xofiller!SHFILL1_RVT!x179080y536280
*7542 xofiller!SHFILL1_RVT!x180600y536280
*7543 xofiller!SHFILL1_RVT!x182120y536280
*7544 xofiller!SHFILL1_RVT!x183640y536280
*7545 xofiller!SHFILL1_RVT!x185160y536280
*7546 xofiller!SHFILL1_RVT!x186680y536280
*7547 xofiller!SHFILL1_RVT!x188200y536280
*7548 xofiller!SHFILL1_RVT!x189720y536280
*7549 xofiller!SHFILL1_RVT!x191240y536280
*7550 xofiller!SHFILL1_RVT!x192760y536280
*7551 xofiller!SHFILL1_RVT!x247480y536280
*7552 xofiller!SHFILL1_RVT!x249000y536280
*7553 xofiller!SHFILL1_RVT!x250520y536280
*7554 xofiller!SHFILL1_RVT!x252040y536280
*7555 xofiller!SHFILL1_RVT!x253560y536280
*7556 xofiller!SHFILL1_RVT!x255080y536280
*7557 xofiller!SHFILL1_RVT!x256600y536280
*7558 xofiller!SHFILL1_RVT!x258120y536280
*7559 xofiller!SHFILL1_RVT!x259640y536280
*7560 xofiller!SHFILL1_RVT!x261160y536280
*7561 xofiller!SHFILL1_RVT!x271800y536280
*7562 xofiller!SHFILL1_RVT!x273320y536280
*7563 xofiller!SHFILL1_RVT!x274840y536280
*7564 xofiller!SHFILL1_RVT!x276360y536280
*7565 xofiller!SHFILL1_RVT!x277880y536280
*7566 xofiller!SHFILL1_RVT!x279400y536280
*7567 xofiller!SHFILL1_RVT!x280920y536280
*7568 xofiller!SHFILL1_RVT!x282440y536280
*7569 xofiller!SHFILL1_RVT!x283960y536280
*7570 xofiller!SHFILL1_RVT!x285480y536280
*7571 xofiller!SHFILL1_RVT!x287000y536280
*7572 xofiller!SHFILL1_RVT!x288520y536280
*7573 xofiller!SHFILL1_RVT!x290040y536280
*7574 xofiller!SHFILL1_RVT!x291560y536280
*7575 xofiller!SHFILL1_RVT!x305240y536280
*7576 xofiller!SHFILL1_RVT!x306760y536280
*7577 xofiller!SHFILL1_RVT!x308280y536280
*7578 xofiller!SHFILL1_RVT!x309800y536280
*7579 xofiller!SHFILL1_RVT!x311320y536280
*7580 xofiller!SHFILL1_RVT!x312840y536280
*7581 xofiller!SHFILL1_RVT!x314360y536280
*7582 xofiller!SHFILL1_RVT!x315880y536280
*7583 xofiller!SHFILL1_RVT!x317400y536280
*7584 xofiller!SHFILL1_RVT!x318920y536280
*7585 xofiller!SHFILL1_RVT!x320440y536280
*7586 xofiller!SHFILL1_RVT!x321960y536280
*7587 xofiller!SHFILL1_RVT!x323480y536280
*7588 xofiller!SHFILL1_RVT!x325000y536280
*7589 xofiller!SHFILL1_RVT!x326520y536280
*7590 xofiller!SHFILL1_RVT!x343240y536280
*7591 xofiller!SHFILL1_RVT!x344760y536280
*7592 xofiller!SHFILL1_RVT!x346280y536280
*7593 xofiller!SHFILL1_RVT!x347800y536280
*7594 xofiller!SHFILL1_RVT!x349320y536280
*7595 xofiller!SHFILL1_RVT!x350840y536280
*7596 xofiller!SHFILL1_RVT!x352360y536280
*7597 xofiller!SHFILL1_RVT!x353880y536280
*7598 xofiller!SHFILL1_RVT!x355400y536280
*7599 xofiller!SHFILL1_RVT!x356920y536280
*7600 xofiller!SHFILL1_RVT!x358440y536280
*7601 xofiller!SHFILL1_RVT!x359960y536280
*7602 xofiller!SHFILL1_RVT!x361480y536280
*7603 xofiller!SHFILL1_RVT!x363000y536280
*7604 xofiller!SHFILL1_RVT!x364520y536280
*7605 xofiller!SHFILL1_RVT!x366040y536280
*7606 xofiller!SHFILL1_RVT!x367560y536280
*7607 xofiller!SHFILL1_RVT!x369080y536280
*7608 xofiller!SHFILL1_RVT!x370600y536280
*7609 xofiller!SHFILL1_RVT!x372120y536280
*7610 xofiller!SHFILL1_RVT!x373640y536280
*7611 xofiller!SHFILL1_RVT!x375160y536280
*7612 xofiller!SHFILL1_RVT!x376680y536280
*7613 xofiller!SHFILL1_RVT!x378200y536280
*7614 xofiller!SHFILL1_RVT!x391880y536280
*7615 xofiller!SHFILL1_RVT!x393400y536280
*7616 xofiller!SHFILL1_RVT!x394920y536280
*7617 xofiller!SHFILL1_RVT!x396440y536280
*7618 xofiller!SHFILL1_RVT!x397960y536280
*7619 xofiller!SHFILL1_RVT!x399480y536280
*7620 xofiller!SHFILL1_RVT!x401000y536280
*7621 xofiller!SHFILL1_RVT!x416200y536280
*7622 xofiller!SHFILL1_RVT!x417720y536280
*7623 xofiller!SHFILL1_RVT!x419240y536280
*7624 xofiller!SHFILL1_RVT!x420760y536280
*7625 xofiller!SHFILL1_RVT!x422280y536280
*7626 xofiller!SHFILL1_RVT!x423800y536280
*7627 xofiller!SHFILL1_RVT!x425320y536280
*7628 xofiller!SHFILL1_RVT!x426840y536280
*7629 xofiller!SHFILL1_RVT!x428360y536280
*7630 xofiller!SHFILL1_RVT!x429880y536280
*7631 xofiller!SHFILL1_RVT!x431400y536280
*7632 xofiller!SHFILL1_RVT!x432920y536280
*7633 xofiller!SHFILL1_RVT!x443560y536280
*7634 xofiller!SHFILL1_RVT!x445080y536280
*7635 xofiller!SHFILL1_RVT!x446600y536280
*7636 xofiller!SHFILL1_RVT!x448120y536280
*7637 xofiller!SHFILL1_RVT!x449640y536280
*7638 xofiller!SHFILL1_RVT!x451160y536280
*7639 xofiller!SHFILL1_RVT!x452680y536280
*7640 xofiller!SHFILL1_RVT!x454200y536280
*7641 xofiller!SHFILL1_RVT!x455720y536280
*7642 xofiller!SHFILL1_RVT!x457240y536280
*7643 xofiller!SHFILL1_RVT!x501320y536280
*7644 xofiller!SHFILL1_RVT!x502840y536280
*7645 xofiller!SHFILL1_RVT!x504360y536280
*7646 xofiller!SHFILL1_RVT!x505880y536280
*7647 xofiller!SHFILL1_RVT!x507400y536280
*7648 xofiller!SHFILL1_RVT!x508920y536280
*7649 xofiller!SHFILL1_RVT!x510440y536280
*7650 xofiller!SHFILL1_RVT!x511960y536280
*7651 xofiller!SHFILL1_RVT!x513480y536280
*7652 xofiller!SHFILL1_RVT!x515000y536280
*7653 xofiller!SHFILL1_RVT!x516520y536280
*7654 xofiller!SHFILL1_RVT!x518040y536280
*7655 xofiller!SHFILL1_RVT!x519560y536280
*7656 xofiller!SHFILL1_RVT!x521080y536280
*7657 xofiller!SHFILL1_RVT!x522600y536280
*7658 xofiller!SHFILL1_RVT!x524120y536280
*7659 xofiller!SHFILL1_RVT!x525640y536280
*7660 xofiller!SHFILL1_RVT!x527160y536280
*7661 xofiller!SHFILL1_RVT!x528680y536280
*7662 xofiller!SHFILL1_RVT!x530200y536280
*7663 xofiller!SHFILL1_RVT!x531720y536280
*7664 xofiller!SHFILL1_RVT!x533240y536280
*7665 xofiller!SHFILL1_RVT!x534760y536280
*7666 xofiller!SHFILL1_RVT!x536280y536280
*7667 xofiller!SHFILL1_RVT!x537800y536280
*7668 xofiller!SHFILL1_RVT!x539320y536280
*7669 xofiller!SHFILL1_RVT!x540840y536280
*7670 xofiller!SHFILL1_RVT!x542360y536280
*7671 xofiller!SHFILL1_RVT!x543880y536280
*7672 xofiller!SHFILL1_RVT!x545400y536280
*7673 xofiller!SHFILL1_RVT!x546920y536280
*7674 xofiller!SHFILL1_RVT!x548440y536280
*7675 xofiller!SHFILL1_RVT!x549960y536280
*7676 xofiller!SHFILL1_RVT!x551480y536280
*7677 xofiller!SHFILL1_RVT!x553000y536280
*7678 xofiller!SHFILL1_RVT!x554520y536280
*7679 xofiller!SHFILL1_RVT!x556040y536280
*7680 xofiller!SHFILL1_RVT!x557560y536280
*7681 xofiller!SHFILL1_RVT!x559080y536280
*7682 xofiller!SHFILL1_RVT!x560600y536280
*7683 xofiller!SHFILL1_RVT!x562120y536280
*7684 xofiller!SHFILL1_RVT!x563640y536280
*7685 xofiller!SHFILL1_RVT!x565160y536280
*7686 xofiller!SHFILL1_RVT!x566680y536280
*7687 xofiller!SHFILL1_RVT!x568200y536280
*7688 xofiller!SHFILL1_RVT!x569720y536280
*7689 xofiller!SHFILL1_RVT!x571240y536280
*7690 xofiller!SHFILL1_RVT!x572760y536280
*7691 xofiller!SHFILL1_RVT!x574280y536280
*7692 xofiller!SHFILL1_RVT!x575800y536280
*7693 xofiller!SHFILL1_RVT!x577320y536280
*7694 xofiller!SHFILL1_RVT!x578840y536280
*7695 xofiller!SHFILL1_RVT!x580360y536280
*7696 xofiller!SHFILL1_RVT!x581880y536280
*7697 xofiller!SHFILL1_RVT!x583400y536280
*7698 xofiller!SHFILL1_RVT!x584920y536280
*7699 xofiller!SHFILL1_RVT!x586440y536280
*7700 xofiller!SHFILL1_RVT!x587960y536280
*7701 xofiller!SHFILL1_RVT!x629000y536280
*7702 xofiller!SHFILL1_RVT!x630520y536280
*7703 xofiller!SHFILL1_RVT!x632040y536280
*7704 xofiller!SHFILL1_RVT!x633560y536280
*7705 xofiller!SHFILL1_RVT!x648760y536280
*7706 xofiller!SHFILL1_RVT!x650280y536280
*7707 xofiller!SHFILL1_RVT!x651800y536280
*7708 xofiller!SHFILL1_RVT!x653320y536280
*7709 xofiller!SHFILL1_RVT!x654840y536280
*7710 xofiller!SHFILL1_RVT!x656360y536280
*7711 xofiller!SHFILL1_RVT!x657880y536280
*7712 xofiller!SHFILL1_RVT!x659400y536280
*7713 xofiller!SHFILL1_RVT!x660920y536280
*7714 xofiller!SHFILL1_RVT!x662440y536280
*7715 xofiller!SHFILL1_RVT!x674600y536280
*7716 xofiller!SHFILL1_RVT!x676120y536280
*7717 xofiller!SHFILL1_RVT!x677640y536280
*7718 xofiller!SHFILL1_RVT!x679160y536280
*7719 xofiller!SHFILL1_RVT!x680680y536280
*7720 xofiller!SHFILL1_RVT!x682200y536280
*7721 xofiller!SHFILL1_RVT!x683720y536280
*7722 xofiller!SHFILL1_RVT!x685240y536280
*7723 xofiller!SHFILL1_RVT!x686760y536280
*7724 xofiller!SHFILL1_RVT!x695880y536280
*7725 xofiller!SHFILL1_RVT!x697400y536280
*7726 xofiller!SHFILL1_RVT!x698920y536280
*7727 xofiller!SHFILL1_RVT!x700440y536280
*7728 xofiller!SHFILL1_RVT!x701960y536280
*7729 xofiller!SHFILL1_RVT!x703480y536280
*7730 xofiller!SHFILL1_RVT!x705000y536280
*7731 xofiller!SHFILL1_RVT!x715640y536280
*7732 xofiller!SHFILL1_RVT!x717160y536280
*7733 xofiller!SHFILL1_RVT!x718680y536280
*7734 xofiller!SHFILL1_RVT!x720200y536280
*7735 xofiller!SHFILL1_RVT!x721720y536280
*7736 xofiller!SHFILL1_RVT!x723240y536280
*7737 xofiller!SHFILL1_RVT!x724760y536280
*7738 xofiller!SHFILL1_RVT!x726280y536280
*7739 xofiller!SHFILL1_RVT!x727800y536280
*7740 xofiller!SHFILL1_RVT!x729320y536280
*7741 xofiller!SHFILL1_RVT!x738440y536280
*7742 xofiller!SHFILL1_RVT!x739960y536280
*7743 xofiller!SHFILL1_RVT!x741480y536280
*7744 xofiller!SHFILL1_RVT!x743000y536280
*7745 xofiller!SHFILL1_RVT!x744520y536280
*7746 xofiller!SHFILL1_RVT!x135000y553000
*7747 xofiller!SHFILL1_RVT!x136520y553000
*7748 xofiller!SHFILL1_RVT!x138040y553000
*7749 xofiller!SHFILL1_RVT!x139560y553000
*7750 xofiller!SHFILL1_RVT!x141080y553000
*7751 xofiller!SHFILL1_RVT!x142600y553000
*7752 xofiller!SHFILL1_RVT!x144120y553000
*7753 xofiller!SHFILL1_RVT!x145640y553000
*7754 xofiller!SHFILL1_RVT!x147160y553000
*7755 xofiller!SHFILL1_RVT!x148680y553000
*7756 xofiller!SHFILL1_RVT!x150200y553000
*7757 xofiller!SHFILL1_RVT!x151720y553000
*7758 xofiller!SHFILL1_RVT!x153240y553000
*7759 xofiller!SHFILL1_RVT!x154760y553000
*7760 xofiller!SHFILL1_RVT!x156280y553000
*7761 xofiller!SHFILL1_RVT!x157800y553000
*7762 xofiller!SHFILL1_RVT!x159320y553000
*7763 xofiller!SHFILL1_RVT!x160840y553000
*7764 xofiller!SHFILL1_RVT!x162360y553000
*7765 xofiller!SHFILL1_RVT!x163880y553000
*7766 xofiller!SHFILL1_RVT!x165400y553000
*7767 xofiller!SHFILL1_RVT!x166920y553000
*7768 xofiller!SHFILL1_RVT!x168440y553000
*7769 xofiller!SHFILL1_RVT!x169960y553000
*7770 xofiller!SHFILL1_RVT!x171480y553000
*7771 xofiller!SHFILL1_RVT!x173000y553000
*7772 xofiller!SHFILL1_RVT!x174520y553000
*7773 xofiller!SHFILL1_RVT!x176040y553000
*7774 xofiller!SHFILL1_RVT!x177560y553000
*7775 xofiller!SHFILL1_RVT!x179080y553000
*7776 xofiller!SHFILL1_RVT!x180600y553000
*7777 xofiller!SHFILL1_RVT!x182120y553000
*7778 xofiller!SHFILL1_RVT!x183640y553000
*7779 xofiller!SHFILL1_RVT!x185160y553000
*7780 xofiller!SHFILL1_RVT!x186680y553000
*7781 xofiller!SHFILL1_RVT!x188200y553000
*7782 xofiller!SHFILL1_RVT!x189720y553000
*7783 xofiller!SHFILL1_RVT!x191240y553000
*7784 xofiller!SHFILL1_RVT!x192760y553000
*7785 xofiller!SHFILL1_RVT!x236840y553000
*7786 xofiller!SHFILL1_RVT!x238360y553000
*7787 xofiller!SHFILL1_RVT!x239880y553000
*7788 xofiller!SHFILL1_RVT!x241400y553000
*7789 xofiller!SHFILL1_RVT!x242920y553000
*7790 xofiller!SHFILL1_RVT!x244440y553000
*7791 xofiller!SHFILL1_RVT!x245960y553000
*7792 xofiller!SHFILL1_RVT!x247480y553000
*7793 xofiller!SHFILL1_RVT!x249000y553000
*7794 xofiller!SHFILL1_RVT!x250520y553000
*7795 xofiller!SHFILL1_RVT!x252040y553000
*7796 xofiller!SHFILL1_RVT!x253560y553000
*7797 xofiller!SHFILL1_RVT!x255080y553000
*7798 xofiller!SHFILL1_RVT!x256600y553000
*7799 xofiller!SHFILL1_RVT!x258120y553000
*7800 xofiller!SHFILL1_RVT!x259640y553000
*7801 xofiller!SHFILL1_RVT!x261160y553000
*7802 xofiller!SHFILL1_RVT!x262680y553000
*7803 xofiller!SHFILL1_RVT!x274840y553000
*7804 xofiller!SHFILL1_RVT!x276360y553000
*7805 xofiller!SHFILL1_RVT!x277880y553000
*7806 xofiller!SHFILL1_RVT!x279400y553000
*7807 xofiller!SHFILL1_RVT!x280920y553000
*7808 xofiller!SHFILL1_RVT!x282440y553000
*7809 xofiller!SHFILL1_RVT!x283960y553000
*7810 xofiller!SHFILL1_RVT!x285480y553000
*7811 xofiller!SHFILL1_RVT!x287000y553000
*7812 xofiller!SHFILL1_RVT!x288520y553000
*7813 xofiller!SHFILL1_RVT!x290040y553000
*7814 xofiller!SHFILL1_RVT!x291560y553000
*7815 xofiller!SHFILL1_RVT!x293080y553000
*7816 xofiller!SHFILL1_RVT!x294600y553000
*7817 xofiller!SHFILL1_RVT!x296120y553000
*7818 xofiller!SHFILL1_RVT!x297640y553000
*7819 xofiller!SHFILL1_RVT!x299160y553000
*7820 xofiller!SHFILL1_RVT!x300680y553000
*7821 xofiller!SHFILL1_RVT!x302200y553000
*7822 xofiller!SHFILL1_RVT!x303720y553000
*7823 xofiller!SHFILL1_RVT!x305240y553000
*7824 xofiller!SHFILL1_RVT!x306760y553000
*7825 xofiller!SHFILL1_RVT!x308280y553000
*7826 xofiller!SHFILL1_RVT!x309800y553000
*7827 xofiller!SHFILL1_RVT!x311320y553000
*7828 xofiller!SHFILL1_RVT!x312840y553000
*7829 xofiller!SHFILL1_RVT!x314360y553000
*7830 xofiller!SHFILL1_RVT!x315880y553000
*7831 xofiller!SHFILL1_RVT!x317400y553000
*7832 xofiller!SHFILL1_RVT!x318920y553000
*7833 xofiller!SHFILL1_RVT!x320440y553000
*7834 xofiller!SHFILL1_RVT!x321960y553000
*7835 xofiller!SHFILL1_RVT!x323480y553000
*7836 xofiller!SHFILL1_RVT!x325000y553000
*7837 xofiller!SHFILL1_RVT!x326520y553000
*7838 xofiller!SHFILL1_RVT!x328040y553000
*7839 xofiller!SHFILL1_RVT!x329560y553000
*7840 xofiller!SHFILL1_RVT!x331080y553000
*7841 xofiller!SHFILL1_RVT!x332600y553000
*7842 xofiller!SHFILL1_RVT!x334120y553000
*7843 xofiller!SHFILL1_RVT!x335640y553000
*7844 xofiller!SHFILL1_RVT!x337160y553000
*7845 xofiller!SHFILL1_RVT!x338680y553000
*7846 xofiller!SHFILL1_RVT!x340200y553000
*7847 xofiller!SHFILL1_RVT!x341720y553000
*7848 xofiller!SHFILL1_RVT!x343240y553000
*7849 xofiller!SHFILL1_RVT!x344760y553000
*7850 xofiller!SHFILL1_RVT!x359960y553000
*7851 xofiller!SHFILL1_RVT!x361480y553000
*7852 xofiller!SHFILL1_RVT!x363000y553000
*7853 xofiller!SHFILL1_RVT!x364520y553000
*7854 xofiller!SHFILL1_RVT!x366040y553000
*7855 xofiller!SHFILL1_RVT!x367560y553000
*7856 xofiller!SHFILL1_RVT!x369080y553000
*7857 xofiller!SHFILL1_RVT!x370600y553000
*7858 xofiller!SHFILL1_RVT!x372120y553000
*7859 xofiller!SHFILL1_RVT!x373640y553000
*7860 xofiller!SHFILL1_RVT!x375160y553000
*7861 xofiller!SHFILL1_RVT!x376680y553000
*7862 xofiller!SHFILL1_RVT!x378200y553000
*7863 xofiller!SHFILL1_RVT!x379720y553000
*7864 xofiller!SHFILL1_RVT!x381240y553000
*7865 xofiller!SHFILL1_RVT!x382760y553000
*7866 xofiller!SHFILL1_RVT!x384280y553000
*7867 xofiller!SHFILL1_RVT!x385800y553000
*7868 xofiller!SHFILL1_RVT!x387320y553000
*7869 xofiller!SHFILL1_RVT!x388840y553000
*7870 xofiller!SHFILL1_RVT!x390360y553000
*7871 xofiller!SHFILL1_RVT!x391880y553000
*7872 xofiller!SHFILL1_RVT!x393400y553000
*7873 xofiller!SHFILL1_RVT!x394920y553000
*7874 xofiller!SHFILL1_RVT!x396440y553000
*7875 xofiller!SHFILL1_RVT!x397960y553000
*7876 xofiller!SHFILL1_RVT!x399480y553000
*7877 xofiller!SHFILL1_RVT!x401000y553000
*7878 xofiller!SHFILL1_RVT!x410120y553000
*7879 xofiller!SHFILL1_RVT!x411640y553000
*7880 xofiller!SHFILL1_RVT!x413160y553000
*7881 xofiller!SHFILL1_RVT!x414680y553000
*7882 xofiller!SHFILL1_RVT!x416200y553000
*7883 xofiller!SHFILL1_RVT!x417720y553000
*7884 xofiller!SHFILL1_RVT!x419240y553000
*7885 xofiller!SHFILL1_RVT!x420760y553000
*7886 xofiller!SHFILL1_RVT!x422280y553000
*7887 xofiller!SHFILL1_RVT!x423800y553000
*7888 xofiller!SHFILL1_RVT!x425320y553000
*7889 xofiller!SHFILL1_RVT!x435960y553000
*7890 xofiller!SHFILL1_RVT!x437480y553000
*7891 xofiller!SHFILL1_RVT!x439000y553000
*7892 xofiller!SHFILL1_RVT!x440520y553000
*7893 xofiller!SHFILL1_RVT!x442040y553000
*7894 xofiller!SHFILL1_RVT!x443560y553000
*7895 xofiller!SHFILL1_RVT!x445080y553000
*7896 xofiller!SHFILL1_RVT!x446600y553000
*7897 xofiller!SHFILL1_RVT!x448120y553000
*7898 xofiller!SHFILL1_RVT!x449640y553000
*7899 xofiller!SHFILL1_RVT!x451160y553000
*7900 xofiller!SHFILL1_RVT!x452680y553000
*7901 xofiller!SHFILL1_RVT!x461800y553000
*7902 xofiller!SHFILL1_RVT!x463320y553000
*7903 xofiller!SHFILL1_RVT!x464840y553000
*7904 xofiller!SHFILL1_RVT!x466360y553000
*7905 xofiller!SHFILL1_RVT!x467880y553000
*7906 xofiller!SHFILL1_RVT!x469400y553000
*7907 xofiller!SHFILL1_RVT!x470920y553000
*7908 xofiller!SHFILL1_RVT!x472440y553000
*7909 xofiller!SHFILL1_RVT!x473960y553000
*7910 xofiller!SHFILL1_RVT!x475480y553000
*7911 xofiller!SHFILL1_RVT!x477000y553000
*7912 xofiller!SHFILL1_RVT!x478520y553000
*7913 xofiller!SHFILL1_RVT!x480040y553000
*7914 xofiller!SHFILL1_RVT!x481560y553000
*7915 xofiller!SHFILL1_RVT!x483080y553000
*7916 xofiller!SHFILL1_RVT!x515000y553000
*7917 xofiller!SHFILL1_RVT!x516520y553000
*7918 xofiller!SHFILL1_RVT!x518040y553000
*7919 xofiller!SHFILL1_RVT!x519560y553000
*7920 xofiller!SHFILL1_RVT!x521080y553000
*7921 xofiller!SHFILL1_RVT!x522600y553000
*7922 xofiller!SHFILL1_RVT!x524120y553000
*7923 xofiller!SHFILL1_RVT!x525640y553000
*7924 xofiller!SHFILL1_RVT!x527160y553000
*7925 xofiller!SHFILL1_RVT!x528680y553000
*7926 xofiller!SHFILL1_RVT!x530200y553000
*7927 xofiller!SHFILL1_RVT!x531720y553000
*7928 xofiller!SHFILL1_RVT!x533240y553000
*7929 xofiller!SHFILL1_RVT!x534760y553000
*7930 xofiller!SHFILL1_RVT!x536280y553000
*7931 xofiller!SHFILL1_RVT!x537800y553000
*7932 xofiller!SHFILL1_RVT!x539320y553000
*7933 xofiller!SHFILL1_RVT!x540840y553000
*7934 xofiller!SHFILL1_RVT!x542360y553000
*7935 xofiller!SHFILL1_RVT!x543880y553000
*7936 xofiller!SHFILL1_RVT!x545400y553000
*7937 xofiller!SHFILL1_RVT!x546920y553000
*7938 xofiller!SHFILL1_RVT!x548440y553000
*7939 xofiller!SHFILL1_RVT!x549960y553000
*7940 xofiller!SHFILL1_RVT!x551480y553000
*7941 xofiller!SHFILL1_RVT!x553000y553000
*7942 xofiller!SHFILL1_RVT!x554520y553000
*7943 xofiller!SHFILL1_RVT!x556040y553000
*7944 xofiller!SHFILL1_RVT!x557560y553000
*7945 xofiller!SHFILL1_RVT!x559080y553000
*7946 xofiller!SHFILL1_RVT!x560600y553000
*7947 xofiller!SHFILL1_RVT!x562120y553000
*7948 xofiller!SHFILL1_RVT!x563640y553000
*7949 xofiller!SHFILL1_RVT!x565160y553000
*7950 xofiller!SHFILL1_RVT!x566680y553000
*7951 xofiller!SHFILL1_RVT!x568200y553000
*7952 xofiller!SHFILL1_RVT!x569720y553000
*7953 xofiller!SHFILL1_RVT!x571240y553000
*7954 xofiller!SHFILL1_RVT!x572760y553000
*7955 xofiller!SHFILL1_RVT!x574280y553000
*7956 xofiller!SHFILL1_RVT!x575800y553000
*7957 xofiller!SHFILL1_RVT!x577320y553000
*7958 xofiller!SHFILL1_RVT!x578840y553000
*7959 xofiller!SHFILL1_RVT!x580360y553000
*7960 xofiller!SHFILL1_RVT!x581880y553000
*7961 xofiller!SHFILL1_RVT!x583400y553000
*7962 xofiller!SHFILL1_RVT!x584920y553000
*7963 xofiller!SHFILL1_RVT!x586440y553000
*7964 xofiller!SHFILL1_RVT!x587960y553000
*7965 xofiller!SHFILL1_RVT!x589480y553000
*7966 xofiller!SHFILL1_RVT!x591000y553000
*7967 xofiller!SHFILL1_RVT!x592520y553000
*7968 xofiller!SHFILL1_RVT!x594040y553000
*7969 xofiller!SHFILL1_RVT!x595560y553000
*7970 xofiller!SHFILL1_RVT!x597080y553000
*7971 xofiller!SHFILL1_RVT!x598600y553000
*7972 xofiller!SHFILL1_RVT!x600120y553000
*7973 xofiller!SHFILL1_RVT!x601640y553000
*7974 xofiller!SHFILL1_RVT!x603160y553000
*7975 xofiller!SHFILL1_RVT!x604680y553000
*7976 xofiller!SHFILL1_RVT!x606200y553000
*7977 xofiller!SHFILL1_RVT!x607720y553000
*7978 xofiller!SHFILL1_RVT!x609240y553000
*7979 xofiller!SHFILL1_RVT!x610760y553000
*7980 xofiller!SHFILL1_RVT!x612280y553000
*7981 xofiller!SHFILL1_RVT!x613800y553000
*7982 xofiller!SHFILL1_RVT!x615320y553000
*7983 xofiller!SHFILL1_RVT!x616840y553000
*7984 xofiller!SHFILL1_RVT!x618360y553000
*7985 xofiller!SHFILL1_RVT!x619880y553000
*7986 xofiller!SHFILL1_RVT!x621400y553000
*7987 xofiller!SHFILL1_RVT!x622920y553000
*7988 xofiller!SHFILL1_RVT!x624440y553000
*7989 xofiller!SHFILL1_RVT!x625960y553000
*7990 xofiller!SHFILL1_RVT!x627480y553000
*7991 xofiller!SHFILL1_RVT!x629000y553000
*7992 xofiller!SHFILL1_RVT!x630520y553000
*7993 xofiller!SHFILL1_RVT!x632040y553000
*7994 xofiller!SHFILL1_RVT!x633560y553000
*7995 xofiller!SHFILL1_RVT!x635080y553000
*7996 xofiller!SHFILL1_RVT!x636600y553000
*7997 xofiller!SHFILL1_RVT!x638120y553000
*7998 xofiller!SHFILL1_RVT!x639640y553000
*7999 xofiller!SHFILL1_RVT!x641160y553000
*8000 xofiller!SHFILL1_RVT!x642680y553000
*8001 xofiller!SHFILL1_RVT!x644200y553000
*8002 xofiller!SHFILL1_RVT!x645720y553000
*8003 xofiller!SHFILL1_RVT!x647240y553000
*8004 xofiller!SHFILL1_RVT!x648760y553000
*8005 xofiller!SHFILL1_RVT!x650280y553000
*8006 xofiller!SHFILL1_RVT!x651800y553000
*8007 xofiller!SHFILL1_RVT!x653320y553000
*8008 xofiller!SHFILL1_RVT!x654840y553000
*8009 xofiller!SHFILL1_RVT!x656360y553000
*8010 xofiller!SHFILL1_RVT!x657880y553000
*8011 xofiller!SHFILL1_RVT!x659400y553000
*8012 xofiller!SHFILL1_RVT!x660920y553000
*8013 xofiller!SHFILL1_RVT!x662440y553000
*8014 xofiller!SHFILL1_RVT!x663960y553000
*8015 xofiller!SHFILL1_RVT!x665480y553000
*8016 xofiller!SHFILL1_RVT!x667000y553000
*8017 xofiller!SHFILL1_RVT!x668520y553000
*8018 xofiller!SHFILL1_RVT!x670040y553000
*8019 xofiller!SHFILL1_RVT!x671560y553000
*8020 xofiller!SHFILL1_RVT!x673080y553000
*8021 xofiller!SHFILL1_RVT!x674600y553000
*8022 xofiller!SHFILL1_RVT!x676120y553000
*8023 xofiller!SHFILL1_RVT!x677640y553000
*8024 xofiller!SHFILL1_RVT!x679160y553000
*8025 xofiller!SHFILL1_RVT!x680680y553000
*8026 xofiller!SHFILL1_RVT!x682200y553000
*8027 xofiller!SHFILL1_RVT!x683720y553000
*8028 xofiller!SHFILL1_RVT!x685240y553000
*8029 xofiller!SHFILL1_RVT!x686760y553000
*8030 xofiller!SHFILL1_RVT!x688280y553000
*8031 xofiller!SHFILL1_RVT!x689800y553000
*8032 xofiller!SHFILL1_RVT!x691320y553000
*8033 xofiller!SHFILL1_RVT!x692840y553000
*8034 xofiller!SHFILL1_RVT!x694360y553000
*8035 xofiller!SHFILL1_RVT!x695880y553000
*8036 xofiller!SHFILL1_RVT!x697400y553000
*8037 xofiller!SHFILL1_RVT!x698920y553000
*8038 xofiller!SHFILL1_RVT!x700440y553000
*8039 xofiller!SHFILL1_RVT!x701960y553000
*8040 xofiller!SHFILL1_RVT!x703480y553000
*8041 xofiller!SHFILL1_RVT!x705000y553000
*8042 xofiller!SHFILL1_RVT!x706520y553000
*8043 xofiller!SHFILL1_RVT!x708040y553000
*8044 xofiller!SHFILL1_RVT!x709560y553000
*8045 xofiller!SHFILL1_RVT!x711080y553000
*8046 xofiller!SHFILL1_RVT!x712600y553000
*8047 xofiller!SHFILL1_RVT!x714120y553000
*8048 xofiller!SHFILL1_RVT!x715640y553000
*8049 xofiller!SHFILL1_RVT!x717160y553000
*8050 xofiller!SHFILL1_RVT!x718680y553000
*8051 xofiller!SHFILL1_RVT!x720200y553000
*8052 xofiller!SHFILL1_RVT!x721720y553000
*8053 xofiller!SHFILL1_RVT!x723240y553000
*8054 xofiller!SHFILL1_RVT!x724760y553000
*8055 xofiller!SHFILL1_RVT!x726280y553000
*8056 xofiller!SHFILL1_RVT!x727800y553000
*8057 xofiller!SHFILL1_RVT!x729320y553000
*8058 xofiller!SHFILL1_RVT!x730840y553000
*8059 xofiller!SHFILL1_RVT!x732360y553000
*8060 xofiller!SHFILL1_RVT!x733880y553000
*8061 xofiller!SHFILL1_RVT!x735400y553000
*8062 xofiller!SHFILL1_RVT!x736920y553000
*8063 xofiller!SHFILL1_RVT!x738440y553000
*8064 xofiller!SHFILL1_RVT!x739960y553000
*8065 xofiller!SHFILL1_RVT!x741480y553000
*8066 xofiller!SHFILL1_RVT!x743000y553000
*8067 xofiller!SHFILL1_RVT!x744520y553000
*8068 xofiller!SHFILL1_RVT!x135000y569720
*8069 xofiller!SHFILL1_RVT!x136520y569720
*8070 xofiller!SHFILL1_RVT!x138040y569720
*8071 xofiller!SHFILL1_RVT!x139560y569720
*8072 xofiller!SHFILL1_RVT!x141080y569720
*8073 xofiller!SHFILL1_RVT!x142600y569720
*8074 xofiller!SHFILL1_RVT!x144120y569720
*8075 xofiller!SHFILL1_RVT!x145640y569720
*8076 xofiller!SHFILL1_RVT!x147160y569720
*8077 xofiller!SHFILL1_RVT!x148680y569720
*8078 xofiller!SHFILL1_RVT!x150200y569720
*8079 xofiller!SHFILL1_RVT!x151720y569720
*8080 xofiller!SHFILL1_RVT!x153240y569720
*8081 xofiller!SHFILL1_RVT!x154760y569720
*8082 xofiller!SHFILL1_RVT!x156280y569720
*8083 xofiller!SHFILL1_RVT!x157800y569720
*8084 xofiller!SHFILL1_RVT!x159320y569720
*8085 xofiller!SHFILL1_RVT!x160840y569720
*8086 xofiller!SHFILL1_RVT!x162360y569720
*8087 xofiller!SHFILL1_RVT!x163880y569720
*8088 xofiller!SHFILL1_RVT!x165400y569720
*8089 xofiller!SHFILL1_RVT!x166920y569720
*8090 xofiller!SHFILL1_RVT!x168440y569720
*8091 xofiller!SHFILL1_RVT!x169960y569720
*8092 xofiller!SHFILL1_RVT!x171480y569720
*8093 xofiller!SHFILL1_RVT!x173000y569720
*8094 xofiller!SHFILL1_RVT!x174520y569720
*8095 xofiller!SHFILL1_RVT!x176040y569720
*8096 xofiller!SHFILL1_RVT!x177560y569720
*8097 xofiller!SHFILL1_RVT!x179080y569720
*8098 xofiller!SHFILL1_RVT!x180600y569720
*8099 xofiller!SHFILL1_RVT!x182120y569720
*8100 xofiller!SHFILL1_RVT!x183640y569720
*8101 xofiller!SHFILL1_RVT!x185160y569720
*8102 xofiller!SHFILL1_RVT!x186680y569720
*8103 xofiller!SHFILL1_RVT!x188200y569720
*8104 xofiller!SHFILL1_RVT!x189720y569720
*8105 xofiller!SHFILL1_RVT!x191240y569720
*8106 xofiller!SHFILL1_RVT!x192760y569720
*8107 xofiller!SHFILL1_RVT!x194280y569720
*8108 xofiller!SHFILL1_RVT!x195800y569720
*8109 xofiller!SHFILL1_RVT!x197320y569720
*8110 xofiller!SHFILL1_RVT!x198840y569720
*8111 xofiller!SHFILL1_RVT!x200360y569720
*8112 xofiller!SHFILL1_RVT!x201880y569720
*8113 xofiller!SHFILL1_RVT!x203400y569720
*8114 xofiller!SHFILL1_RVT!x204920y569720
*8115 xofiller!SHFILL1_RVT!x206440y569720
*8116 xofiller!SHFILL1_RVT!x207960y569720
*8117 xofiller!SHFILL1_RVT!x209480y569720
*8118 xofiller!SHFILL1_RVT!x211000y569720
*8119 xofiller!SHFILL1_RVT!x212520y569720
*8120 xofiller!SHFILL1_RVT!x214040y569720
*8121 xofiller!SHFILL1_RVT!x215560y569720
*8122 xofiller!SHFILL1_RVT!x217080y569720
*8123 xofiller!SHFILL1_RVT!x218600y569720
*8124 xofiller!SHFILL1_RVT!x220120y569720
*8125 xofiller!SHFILL1_RVT!x221640y569720
*8126 xofiller!SHFILL1_RVT!x223160y569720
*8127 xofiller!SHFILL1_RVT!x224680y569720
*8128 xofiller!SHFILL1_RVT!x226200y569720
*8129 xofiller!SHFILL1_RVT!x227720y569720
*8130 xofiller!SHFILL1_RVT!x229240y569720
*8131 xofiller!SHFILL1_RVT!x230760y569720
*8132 xofiller!SHFILL1_RVT!x232280y569720
*8133 xofiller!SHFILL1_RVT!x233800y569720
*8134 xofiller!SHFILL1_RVT!x235320y569720
*8135 xofiller!SHFILL1_RVT!x236840y569720
*8136 xofiller!SHFILL1_RVT!x238360y569720
*8137 xofiller!SHFILL1_RVT!x239880y569720
*8138 xofiller!SHFILL1_RVT!x241400y569720
*8139 xofiller!SHFILL1_RVT!x242920y569720
*8140 xofiller!SHFILL1_RVT!x244440y569720
*8141 xofiller!SHFILL1_RVT!x245960y569720
*8142 xofiller!SHFILL1_RVT!x247480y569720
*8143 xofiller!SHFILL1_RVT!x249000y569720
*8144 xofiller!SHFILL1_RVT!x250520y569720
*8145 xofiller!SHFILL1_RVT!x252040y569720
*8146 xofiller!SHFILL1_RVT!x253560y569720
*8147 xofiller!SHFILL1_RVT!x255080y569720
*8148 xofiller!SHFILL1_RVT!x256600y569720
*8149 xofiller!SHFILL1_RVT!x258120y569720
*8150 xofiller!SHFILL1_RVT!x259640y569720
*8151 xofiller!SHFILL1_RVT!x261160y569720
*8152 xofiller!SHFILL1_RVT!x262680y569720
*8153 xofiller!SHFILL1_RVT!x264200y569720
*8154 xofiller!SHFILL1_RVT!x265720y569720
*8155 xofiller!SHFILL1_RVT!x267240y569720
*8156 xofiller!SHFILL1_RVT!x268760y569720
*8157 xofiller!SHFILL1_RVT!x270280y569720
*8158 xofiller!SHFILL1_RVT!x271800y569720
*8159 xofiller!SHFILL1_RVT!x273320y569720
*8160 xofiller!SHFILL1_RVT!x274840y569720
*8161 xofiller!SHFILL1_RVT!x276360y569720
*8162 xofiller!SHFILL1_RVT!x277880y569720
*8163 xofiller!SHFILL1_RVT!x279400y569720
*8164 xofiller!SHFILL1_RVT!x280920y569720
*8165 xofiller!SHFILL1_RVT!x282440y569720
*8166 xofiller!SHFILL1_RVT!x294600y569720
*8167 xofiller!SHFILL1_RVT!x296120y569720
*8168 xofiller!SHFILL1_RVT!x297640y569720
*8169 xofiller!SHFILL1_RVT!x299160y569720
*8170 xofiller!SHFILL1_RVT!x300680y569720
*8171 xofiller!SHFILL1_RVT!x302200y569720
*8172 xofiller!SHFILL1_RVT!x303720y569720
*8173 xofiller!SHFILL1_RVT!x305240y569720
*8174 xofiller!SHFILL1_RVT!x306760y569720
*8175 xofiller!SHFILL1_RVT!x308280y569720
*8176 xofiller!SHFILL1_RVT!x309800y569720
*8177 xofiller!SHFILL1_RVT!x318920y569720
*8178 xofiller!SHFILL1_RVT!x320440y569720
*8179 xofiller!SHFILL1_RVT!x321960y569720
*8180 xofiller!SHFILL1_RVT!x323480y569720
*8181 xofiller!SHFILL1_RVT!x325000y569720
*8182 xofiller!SHFILL1_RVT!x326520y569720
*8183 xofiller!SHFILL1_RVT!x328040y569720
*8184 xofiller!SHFILL1_RVT!x329560y569720
*8185 xofiller!SHFILL1_RVT!x331080y569720
*8186 xofiller!SHFILL1_RVT!x332600y569720
*8187 xofiller!SHFILL1_RVT!x334120y569720
*8188 xofiller!SHFILL1_RVT!x335640y569720
*8189 xofiller!SHFILL1_RVT!x337160y569720
*8190 xofiller!SHFILL1_RVT!x338680y569720
*8191 xofiller!SHFILL1_RVT!x340200y569720
*8192 xofiller!SHFILL1_RVT!x341720y569720
*8193 xofiller!SHFILL1_RVT!x343240y569720
*8194 xofiller!SHFILL1_RVT!x344760y569720
*8195 xofiller!SHFILL1_RVT!x346280y569720
*8196 xofiller!SHFILL1_RVT!x347800y569720
*8197 xofiller!SHFILL1_RVT!x349320y569720
*8198 xofiller!SHFILL1_RVT!x350840y569720
*8199 xofiller!SHFILL1_RVT!x352360y569720
*8200 xofiller!SHFILL1_RVT!x353880y569720
*8201 xofiller!SHFILL1_RVT!x355400y569720
*8202 xofiller!SHFILL1_RVT!x356920y569720
*8203 xofiller!SHFILL1_RVT!x358440y569720
*8204 xofiller!SHFILL1_RVT!x359960y569720
*8205 xofiller!SHFILL1_RVT!x361480y569720
*8206 xofiller!SHFILL1_RVT!x363000y569720
*8207 xofiller!SHFILL1_RVT!x364520y569720
*8208 xofiller!SHFILL1_RVT!x366040y569720
*8209 xofiller!SHFILL1_RVT!x367560y569720
*8210 xofiller!SHFILL1_RVT!x369080y569720
*8211 xofiller!SHFILL1_RVT!x370600y569720
*8212 xofiller!SHFILL1_RVT!x372120y569720
*8213 xofiller!SHFILL1_RVT!x373640y569720
*8214 xofiller!SHFILL1_RVT!x375160y569720
*8215 xofiller!SHFILL1_RVT!x376680y569720
*8216 xofiller!SHFILL1_RVT!x378200y569720
*8217 xofiller!SHFILL1_RVT!x379720y569720
*8218 xofiller!SHFILL1_RVT!x381240y569720
*8219 xofiller!SHFILL1_RVT!x382760y569720
*8220 xofiller!SHFILL1_RVT!x384280y569720
*8221 xofiller!SHFILL1_RVT!x385800y569720
*8222 xofiller!SHFILL1_RVT!x387320y569720
*8223 xofiller!SHFILL1_RVT!x388840y569720
*8224 xofiller!SHFILL1_RVT!x390360y569720
*8225 xofiller!SHFILL1_RVT!x391880y569720
*8226 xofiller!SHFILL1_RVT!x393400y569720
*8227 xofiller!SHFILL1_RVT!x394920y569720
*8228 xofiller!SHFILL1_RVT!x396440y569720
*8229 xofiller!SHFILL1_RVT!x397960y569720
*8230 xofiller!SHFILL1_RVT!x399480y569720
*8231 xofiller!SHFILL1_RVT!x401000y569720
*8232 xofiller!SHFILL1_RVT!x402520y569720
*8233 xofiller!SHFILL1_RVT!x404040y569720
*8234 xofiller!SHFILL1_RVT!x405560y569720
*8235 xofiller!SHFILL1_RVT!x407080y569720
*8236 xofiller!SHFILL1_RVT!x408600y569720
*8237 xofiller!SHFILL1_RVT!x410120y569720
*8238 xofiller!SHFILL1_RVT!x411640y569720
*8239 xofiller!SHFILL1_RVT!x413160y569720
*8240 xofiller!SHFILL1_RVT!x414680y569720
*8241 xofiller!SHFILL1_RVT!x416200y569720
*8242 xofiller!SHFILL1_RVT!x417720y569720
*8243 xofiller!SHFILL1_RVT!x419240y569720
*8244 xofiller!SHFILL1_RVT!x420760y569720
*8245 xofiller!SHFILL1_RVT!x518040y569720
*8246 xofiller!SHFILL1_RVT!x519560y569720
*8247 xofiller!SHFILL1_RVT!x521080y569720
*8248 xofiller!SHFILL1_RVT!x522600y569720
*8249 xofiller!SHFILL1_RVT!x524120y569720
*8250 xofiller!SHFILL1_RVT!x525640y569720
*8251 xofiller!SHFILL1_RVT!x527160y569720
*8252 xofiller!SHFILL1_RVT!x528680y569720
*8253 xofiller!SHFILL1_RVT!x530200y569720
*8254 xofiller!SHFILL1_RVT!x531720y569720
*8255 xofiller!SHFILL1_RVT!x533240y569720
*8256 xofiller!SHFILL1_RVT!x534760y569720
*8257 xofiller!SHFILL1_RVT!x536280y569720
*8258 xofiller!SHFILL1_RVT!x537800y569720
*8259 xofiller!SHFILL1_RVT!x539320y569720
*8260 xofiller!SHFILL1_RVT!x540840y569720
*8261 xofiller!SHFILL1_RVT!x542360y569720
*8262 xofiller!SHFILL1_RVT!x543880y569720
*8263 xofiller!SHFILL1_RVT!x545400y569720
*8264 xofiller!SHFILL1_RVT!x546920y569720
*8265 xofiller!SHFILL1_RVT!x548440y569720
*8266 xofiller!SHFILL1_RVT!x549960y569720
*8267 xofiller!SHFILL1_RVT!x551480y569720
*8268 xofiller!SHFILL1_RVT!x553000y569720
*8269 xofiller!SHFILL1_RVT!x554520y569720
*8270 xofiller!SHFILL1_RVT!x556040y569720
*8271 xofiller!SHFILL1_RVT!x557560y569720
*8272 xofiller!SHFILL1_RVT!x559080y569720
*8273 xofiller!SHFILL1_RVT!x560600y569720
*8274 xofiller!SHFILL1_RVT!x562120y569720
*8275 xofiller!SHFILL1_RVT!x563640y569720
*8276 xofiller!SHFILL1_RVT!x565160y569720
*8277 xofiller!SHFILL1_RVT!x566680y569720
*8278 xofiller!SHFILL1_RVT!x568200y569720
*8279 xofiller!SHFILL1_RVT!x569720y569720
*8280 xofiller!SHFILL1_RVT!x571240y569720
*8281 xofiller!SHFILL1_RVT!x572760y569720
*8282 xofiller!SHFILL1_RVT!x574280y569720
*8283 xofiller!SHFILL1_RVT!x575800y569720
*8284 xofiller!SHFILL1_RVT!x577320y569720
*8285 xofiller!SHFILL1_RVT!x578840y569720
*8286 xofiller!SHFILL1_RVT!x580360y569720
*8287 xofiller!SHFILL1_RVT!x642680y569720
*8288 xofiller!SHFILL1_RVT!x644200y569720
*8289 xofiller!SHFILL1_RVT!x645720y569720
*8290 xofiller!SHFILL1_RVT!x647240y569720
*8291 xofiller!SHFILL1_RVT!x648760y569720
*8292 xofiller!SHFILL1_RVT!x650280y569720
*8293 xofiller!SHFILL1_RVT!x651800y569720
*8294 xofiller!SHFILL1_RVT!x653320y569720
*8295 xofiller!SHFILL1_RVT!x654840y569720
*8296 xofiller!SHFILL1_RVT!x656360y569720
*8297 xofiller!SHFILL1_RVT!x657880y569720
*8298 xofiller!SHFILL1_RVT!x659400y569720
*8299 xofiller!SHFILL1_RVT!x660920y569720
*8300 xofiller!SHFILL1_RVT!x662440y569720
*8301 xofiller!SHFILL1_RVT!x679160y569720
*8302 xofiller!SHFILL1_RVT!x680680y569720
*8303 xofiller!SHFILL1_RVT!x682200y569720
*8304 xofiller!SHFILL1_RVT!x683720y569720
*8305 xofiller!SHFILL1_RVT!x685240y569720
*8306 xofiller!SHFILL1_RVT!x686760y569720
*8307 xofiller!SHFILL1_RVT!x688280y569720
*8308 xofiller!SHFILL1_RVT!x689800y569720
*8309 xofiller!SHFILL1_RVT!x691320y569720
*8310 xofiller!SHFILL1_RVT!x692840y569720
*8311 xofiller!SHFILL1_RVT!x694360y569720
*8312 xofiller!SHFILL1_RVT!x695880y569720
*8313 xofiller!SHFILL1_RVT!x697400y569720
*8314 xofiller!SHFILL1_RVT!x698920y569720
*8315 xofiller!SHFILL1_RVT!x700440y569720
*8316 xofiller!SHFILL1_RVT!x701960y569720
*8317 xofiller!SHFILL1_RVT!x703480y569720
*8318 xofiller!SHFILL1_RVT!x705000y569720
*8319 xofiller!SHFILL1_RVT!x706520y569720
*8320 xofiller!SHFILL1_RVT!x708040y569720
*8321 xofiller!SHFILL1_RVT!x709560y569720
*8322 xofiller!SHFILL1_RVT!x711080y569720
*8323 xofiller!SHFILL1_RVT!x712600y569720
*8324 xofiller!SHFILL1_RVT!x714120y569720
*8325 xofiller!SHFILL1_RVT!x715640y569720
*8326 xofiller!SHFILL1_RVT!x717160y569720
*8327 xofiller!SHFILL1_RVT!x718680y569720
*8328 xofiller!SHFILL1_RVT!x730840y569720
*8329 xofiller!SHFILL1_RVT!x732360y569720
*8330 xofiller!SHFILL1_RVT!x733880y569720
*8331 xofiller!SHFILL1_RVT!x735400y569720
*8332 xofiller!SHFILL1_RVT!x736920y569720
*8333 xofiller!SHFILL1_RVT!x738440y569720
*8334 xofiller!SHFILL1_RVT!x739960y569720
*8335 xofiller!SHFILL1_RVT!x741480y569720
*8336 xofiller!SHFILL1_RVT!x743000y569720
*8337 xofiller!SHFILL1_RVT!x744520y569720
*8338 xofiller!SHFILL1_RVT!x135000y586440
*8339 xofiller!SHFILL1_RVT!x136520y586440
*8340 xofiller!SHFILL1_RVT!x138040y586440
*8341 xofiller!SHFILL1_RVT!x139560y586440
*8342 xofiller!SHFILL1_RVT!x141080y586440
*8343 xofiller!SHFILL1_RVT!x142600y586440
*8344 xofiller!SHFILL1_RVT!x144120y586440
*8345 xofiller!SHFILL1_RVT!x145640y586440
*8346 xofiller!SHFILL1_RVT!x147160y586440
*8347 xofiller!SHFILL1_RVT!x148680y586440
*8348 xofiller!SHFILL1_RVT!x150200y586440
*8349 xofiller!SHFILL1_RVT!x151720y586440
*8350 xofiller!SHFILL1_RVT!x153240y586440
*8351 xofiller!SHFILL1_RVT!x154760y586440
*8352 xofiller!SHFILL1_RVT!x156280y586440
*8353 xofiller!SHFILL1_RVT!x157800y586440
*8354 xofiller!SHFILL1_RVT!x159320y586440
*8355 xofiller!SHFILL1_RVT!x160840y586440
*8356 xofiller!SHFILL1_RVT!x162360y586440
*8357 xofiller!SHFILL1_RVT!x163880y586440
*8358 xofiller!SHFILL1_RVT!x165400y586440
*8359 xofiller!SHFILL1_RVT!x166920y586440
*8360 xofiller!SHFILL1_RVT!x168440y586440
*8361 xofiller!SHFILL1_RVT!x169960y586440
*8362 xofiller!SHFILL1_RVT!x171480y586440
*8363 xofiller!SHFILL1_RVT!x173000y586440
*8364 xofiller!SHFILL1_RVT!x174520y586440
*8365 xofiller!SHFILL1_RVT!x176040y586440
*8366 xofiller!SHFILL1_RVT!x177560y586440
*8367 xofiller!SHFILL1_RVT!x179080y586440
*8368 xofiller!SHFILL1_RVT!x180600y586440
*8369 xofiller!SHFILL1_RVT!x182120y586440
*8370 xofiller!SHFILL1_RVT!x183640y586440
*8371 xofiller!SHFILL1_RVT!x185160y586440
*8372 xofiller!SHFILL1_RVT!x186680y586440
*8373 xofiller!SHFILL1_RVT!x188200y586440
*8374 xofiller!SHFILL1_RVT!x189720y586440
*8375 xofiller!SHFILL1_RVT!x191240y586440
*8376 xofiller!SHFILL1_RVT!x192760y586440
*8377 xofiller!SHFILL1_RVT!x194280y586440
*8378 xofiller!SHFILL1_RVT!x211000y586440
*8379 xofiller!SHFILL1_RVT!x212520y586440
*8380 xofiller!SHFILL1_RVT!x214040y586440
*8381 xofiller!SHFILL1_RVT!x215560y586440
*8382 xofiller!SHFILL1_RVT!x217080y586440
*8383 xofiller!SHFILL1_RVT!x218600y586440
*8384 xofiller!SHFILL1_RVT!x220120y586440
*8385 xofiller!SHFILL1_RVT!x221640y586440
*8386 xofiller!SHFILL1_RVT!x223160y586440
*8387 xofiller!SHFILL1_RVT!x224680y586440
*8388 xofiller!SHFILL1_RVT!x226200y586440
*8389 xofiller!SHFILL1_RVT!x227720y586440
*8390 xofiller!SHFILL1_RVT!x229240y586440
*8391 xofiller!SHFILL1_RVT!x230760y586440
*8392 xofiller!SHFILL1_RVT!x232280y586440
*8393 xofiller!SHFILL1_RVT!x233800y586440
*8394 xofiller!SHFILL1_RVT!x235320y586440
*8395 xofiller!SHFILL1_RVT!x236840y586440
*8396 xofiller!SHFILL1_RVT!x238360y586440
*8397 xofiller!SHFILL1_RVT!x239880y586440
*8398 xofiller!SHFILL1_RVT!x241400y586440
*8399 xofiller!SHFILL1_RVT!x242920y586440
*8400 xofiller!SHFILL1_RVT!x244440y586440
*8401 xofiller!SHFILL1_RVT!x245960y586440
*8402 xofiller!SHFILL1_RVT!x247480y586440
*8403 xofiller!SHFILL1_RVT!x256600y586440
*8404 xofiller!SHFILL1_RVT!x258120y586440
*8405 xofiller!SHFILL1_RVT!x259640y586440
*8406 xofiller!SHFILL1_RVT!x261160y586440
*8407 xofiller!SHFILL1_RVT!x262680y586440
*8408 xofiller!SHFILL1_RVT!x264200y586440
*8409 xofiller!SHFILL1_RVT!x265720y586440
*8410 xofiller!SHFILL1_RVT!x267240y586440
*8411 xofiller!SHFILL1_RVT!x268760y586440
*8412 xofiller!SHFILL1_RVT!x270280y586440
*8413 xofiller!SHFILL1_RVT!x271800y586440
*8414 xofiller!SHFILL1_RVT!x273320y586440
*8415 xofiller!SHFILL1_RVT!x274840y586440
*8416 xofiller!SHFILL1_RVT!x287000y586440
*8417 xofiller!SHFILL1_RVT!x288520y586440
*8418 xofiller!SHFILL1_RVT!x290040y586440
*8419 xofiller!SHFILL1_RVT!x291560y586440
*8420 xofiller!SHFILL1_RVT!x293080y586440
*8421 xofiller!SHFILL1_RVT!x294600y586440
*8422 xofiller!SHFILL1_RVT!x296120y586440
*8423 xofiller!SHFILL1_RVT!x297640y586440
*8424 xofiller!SHFILL1_RVT!x299160y586440
*8425 xofiller!SHFILL1_RVT!x300680y586440
*8426 xofiller!SHFILL1_RVT!x302200y586440
*8427 xofiller!SHFILL1_RVT!x303720y586440
*8428 xofiller!SHFILL1_RVT!x305240y586440
*8429 xofiller!SHFILL1_RVT!x306760y586440
*8430 xofiller!SHFILL1_RVT!x308280y586440
*8431 xofiller!SHFILL1_RVT!x309800y586440
*8432 xofiller!SHFILL1_RVT!x311320y586440
*8433 xofiller!SHFILL1_RVT!x323480y586440
*8434 xofiller!SHFILL1_RVT!x325000y586440
*8435 xofiller!SHFILL1_RVT!x326520y586440
*8436 xofiller!SHFILL1_RVT!x328040y586440
*8437 xofiller!SHFILL1_RVT!x329560y586440
*8438 xofiller!SHFILL1_RVT!x331080y586440
*8439 xofiller!SHFILL1_RVT!x332600y586440
*8440 xofiller!SHFILL1_RVT!x334120y586440
*8441 xofiller!SHFILL1_RVT!x335640y586440
*8442 xofiller!SHFILL1_RVT!x337160y586440
*8443 xofiller!SHFILL1_RVT!x338680y586440
*8444 xofiller!SHFILL1_RVT!x340200y586440
*8445 xofiller!SHFILL1_RVT!x350840y586440
*8446 xofiller!SHFILL1_RVT!x352360y586440
*8447 xofiller!SHFILL1_RVT!x353880y586440
*8448 xofiller!SHFILL1_RVT!x355400y586440
*8449 xofiller!SHFILL1_RVT!x366040y586440
*8450 xofiller!SHFILL1_RVT!x367560y586440
*8451 xofiller!SHFILL1_RVT!x369080y586440
*8452 xofiller!SHFILL1_RVT!x370600y586440
*8453 xofiller!SHFILL1_RVT!x372120y586440
*8454 xofiller!SHFILL1_RVT!x373640y586440
*8455 xofiller!SHFILL1_RVT!x375160y586440
*8456 xofiller!SHFILL1_RVT!x376680y586440
*8457 xofiller!SHFILL1_RVT!x378200y586440
*8458 xofiller!SHFILL1_RVT!x379720y586440
*8459 xofiller!SHFILL1_RVT!x381240y586440
*8460 xofiller!SHFILL1_RVT!x390360y586440
*8461 xofiller!SHFILL1_RVT!x391880y586440
*8462 xofiller!SHFILL1_RVT!x393400y586440
*8463 xofiller!SHFILL1_RVT!x394920y586440
*8464 xofiller!SHFILL1_RVT!x396440y586440
*8465 xofiller!SHFILL1_RVT!x397960y586440
*8466 xofiller!SHFILL1_RVT!x399480y586440
*8467 xofiller!SHFILL1_RVT!x401000y586440
*8468 xofiller!SHFILL1_RVT!x402520y586440
*8469 xofiller!SHFILL1_RVT!x404040y586440
*8470 xofiller!SHFILL1_RVT!x405560y586440
*8471 xofiller!SHFILL1_RVT!x407080y586440
*8472 xofiller!SHFILL1_RVT!x408600y586440
*8473 xofiller!SHFILL1_RVT!x410120y586440
*8474 xofiller!SHFILL1_RVT!x411640y586440
*8475 xofiller!SHFILL1_RVT!x413160y586440
*8476 xofiller!SHFILL1_RVT!x414680y586440
*8477 xofiller!SHFILL1_RVT!x416200y586440
*8478 xofiller!SHFILL1_RVT!x417720y586440
*8479 xofiller!SHFILL1_RVT!x419240y586440
*8480 xofiller!SHFILL1_RVT!x420760y586440
*8481 xofiller!SHFILL1_RVT!x422280y586440
*8482 xofiller!SHFILL1_RVT!x423800y586440
*8483 xofiller!SHFILL1_RVT!x425320y586440
*8484 xofiller!SHFILL1_RVT!x426840y586440
*8485 xofiller!SHFILL1_RVT!x428360y586440
*8486 xofiller!SHFILL1_RVT!x429880y586440
*8487 xofiller!SHFILL1_RVT!x431400y586440
*8488 xofiller!SHFILL1_RVT!x432920y586440
*8489 xofiller!SHFILL1_RVT!x434440y586440
*8490 xofiller!SHFILL1_RVT!x435960y586440
*8491 xofiller!SHFILL1_RVT!x437480y586440
*8492 xofiller!SHFILL1_RVT!x439000y586440
*8493 xofiller!SHFILL1_RVT!x460280y586440
*8494 xofiller!SHFILL1_RVT!x461800y586440
*8495 xofiller!SHFILL1_RVT!x508920y586440
*8496 xofiller!SHFILL1_RVT!x510440y586440
*8497 xofiller!SHFILL1_RVT!x511960y586440
*8498 xofiller!SHFILL1_RVT!x513480y586440
*8499 xofiller!SHFILL1_RVT!x515000y586440
*8500 xofiller!SHFILL1_RVT!x516520y586440
*8501 xofiller!SHFILL1_RVT!x518040y586440
*8502 xofiller!SHFILL1_RVT!x519560y586440
*8503 xofiller!SHFILL1_RVT!x521080y586440
*8504 xofiller!SHFILL1_RVT!x522600y586440
*8505 xofiller!SHFILL1_RVT!x524120y586440
*8506 xofiller!SHFILL1_RVT!x525640y586440
*8507 xofiller!SHFILL1_RVT!x527160y586440
*8508 xofiller!SHFILL1_RVT!x528680y586440
*8509 xofiller!SHFILL1_RVT!x530200y586440
*8510 xofiller!SHFILL1_RVT!x531720y586440
*8511 xofiller!SHFILL1_RVT!x533240y586440
*8512 xofiller!SHFILL1_RVT!x534760y586440
*8513 xofiller!SHFILL1_RVT!x536280y586440
*8514 xofiller!SHFILL1_RVT!x537800y586440
*8515 xofiller!SHFILL1_RVT!x539320y586440
*8516 xofiller!SHFILL1_RVT!x540840y586440
*8517 xofiller!SHFILL1_RVT!x542360y586440
*8518 xofiller!SHFILL1_RVT!x543880y586440
*8519 xofiller!SHFILL1_RVT!x545400y586440
*8520 xofiller!SHFILL1_RVT!x546920y586440
*8521 xofiller!SHFILL1_RVT!x548440y586440
*8522 xofiller!SHFILL1_RVT!x549960y586440
*8523 xofiller!SHFILL1_RVT!x551480y586440
*8524 xofiller!SHFILL1_RVT!x553000y586440
*8525 xofiller!SHFILL1_RVT!x554520y586440
*8526 xofiller!SHFILL1_RVT!x556040y586440
*8527 xofiller!SHFILL1_RVT!x557560y586440
*8528 xofiller!SHFILL1_RVT!x559080y586440
*8529 xofiller!SHFILL1_RVT!x560600y586440
*8530 xofiller!SHFILL1_RVT!x562120y586440
*8531 xofiller!SHFILL1_RVT!x563640y586440
*8532 xofiller!SHFILL1_RVT!x565160y586440
*8533 xofiller!SHFILL1_RVT!x566680y586440
*8534 xofiller!SHFILL1_RVT!x568200y586440
*8535 xofiller!SHFILL1_RVT!x569720y586440
*8536 xofiller!SHFILL1_RVT!x571240y586440
*8537 xofiller!SHFILL1_RVT!x572760y586440
*8538 xofiller!SHFILL1_RVT!x574280y586440
*8539 xofiller!SHFILL1_RVT!x575800y586440
*8540 xofiller!SHFILL1_RVT!x577320y586440
*8541 xofiller!SHFILL1_RVT!x578840y586440
*8542 xofiller!SHFILL1_RVT!x580360y586440
*8543 xofiller!SHFILL1_RVT!x581880y586440
*8544 xofiller!SHFILL1_RVT!x583400y586440
*8545 xofiller!SHFILL1_RVT!x584920y586440
*8546 xofiller!SHFILL1_RVT!x586440y586440
*8547 xofiller!SHFILL1_RVT!x587960y586440
*8548 xofiller!SHFILL1_RVT!x589480y586440
*8549 xofiller!SHFILL1_RVT!x591000y586440
*8550 xofiller!SHFILL1_RVT!x592520y586440
*8551 xofiller!SHFILL1_RVT!x594040y586440
*8552 xofiller!SHFILL1_RVT!x595560y586440
*8553 xofiller!SHFILL1_RVT!x597080y586440
*8554 xofiller!SHFILL1_RVT!x598600y586440
*8555 xofiller!SHFILL1_RVT!x600120y586440
*8556 xofiller!SHFILL1_RVT!x601640y586440
*8557 xofiller!SHFILL1_RVT!x603160y586440
*8558 xofiller!SHFILL1_RVT!x604680y586440
*8559 xofiller!SHFILL1_RVT!x606200y586440
*8560 xofiller!SHFILL1_RVT!x607720y586440
*8561 xofiller!SHFILL1_RVT!x609240y586440
*8562 xofiller!SHFILL1_RVT!x610760y586440
*8563 xofiller!SHFILL1_RVT!x612280y586440
*8564 xofiller!SHFILL1_RVT!x613800y586440
*8565 xofiller!SHFILL1_RVT!x615320y586440
*8566 xofiller!SHFILL1_RVT!x616840y586440
*8567 xofiller!SHFILL1_RVT!x618360y586440
*8568 xofiller!SHFILL1_RVT!x619880y586440
*8569 xofiller!SHFILL1_RVT!x621400y586440
*8570 xofiller!SHFILL1_RVT!x622920y586440
*8571 xofiller!SHFILL1_RVT!x636600y586440
*8572 xofiller!SHFILL1_RVT!x638120y586440
*8573 xofiller!SHFILL1_RVT!x639640y586440
*8574 xofiller!SHFILL1_RVT!x641160y586440
*8575 xofiller!SHFILL1_RVT!x642680y586440
*8576 xofiller!SHFILL1_RVT!x644200y586440
*8577 xofiller!SHFILL1_RVT!x645720y586440
*8578 xofiller!SHFILL1_RVT!x647240y586440
*8579 xofiller!SHFILL1_RVT!x648760y586440
*8580 xofiller!SHFILL1_RVT!x650280y586440
*8581 xofiller!SHFILL1_RVT!x651800y586440
*8582 xofiller!SHFILL1_RVT!x653320y586440
*8583 xofiller!SHFILL1_RVT!x654840y586440
*8584 xofiller!SHFILL1_RVT!x656360y586440
*8585 xofiller!SHFILL1_RVT!x657880y586440
*8586 xofiller!SHFILL1_RVT!x659400y586440
*8587 xofiller!SHFILL1_RVT!x660920y586440
*8588 xofiller!SHFILL1_RVT!x662440y586440
*8589 xofiller!SHFILL1_RVT!x663960y586440
*8590 xofiller!SHFILL1_RVT!x665480y586440
*8591 xofiller!SHFILL1_RVT!x667000y586440
*8592 xofiller!SHFILL1_RVT!x668520y586440
*8593 xofiller!SHFILL1_RVT!x670040y586440
*8594 xofiller!SHFILL1_RVT!x671560y586440
*8595 xofiller!SHFILL1_RVT!x673080y586440
*8596 xofiller!SHFILL1_RVT!x674600y586440
*8597 xofiller!SHFILL1_RVT!x676120y586440
*8598 xofiller!SHFILL1_RVT!x677640y586440
*8599 xofiller!SHFILL1_RVT!x679160y586440
*8600 xofiller!SHFILL1_RVT!x680680y586440
*8601 xofiller!SHFILL1_RVT!x682200y586440
*8602 xofiller!SHFILL1_RVT!x683720y586440
*8603 xofiller!SHFILL1_RVT!x685240y586440
*8604 xofiller!SHFILL1_RVT!x686760y586440
*8605 xofiller!SHFILL1_RVT!x688280y586440
*8606 xofiller!SHFILL1_RVT!x698920y586440
*8607 xofiller!SHFILL1_RVT!x700440y586440
*8608 xofiller!SHFILL1_RVT!x701960y586440
*8609 xofiller!SHFILL1_RVT!x703480y586440
*8610 xofiller!SHFILL1_RVT!x705000y586440
*8611 xofiller!SHFILL1_RVT!x706520y586440
*8612 xofiller!SHFILL1_RVT!x708040y586440
*8613 xofiller!SHFILL1_RVT!x709560y586440
*8614 xofiller!SHFILL1_RVT!x711080y586440
*8615 xofiller!SHFILL1_RVT!x712600y586440
*8616 xofiller!SHFILL1_RVT!x714120y586440
*8617 xofiller!SHFILL1_RVT!x715640y586440
*8618 xofiller!SHFILL1_RVT!x717160y586440
*8619 xofiller!SHFILL1_RVT!x718680y586440
*8620 xofiller!SHFILL1_RVT!x720200y586440
*8621 xofiller!SHFILL1_RVT!x721720y586440
*8622 xofiller!SHFILL1_RVT!x723240y586440
*8623 xofiller!SHFILL1_RVT!x724760y586440
*8624 xofiller!SHFILL1_RVT!x726280y586440
*8625 xofiller!SHFILL1_RVT!x727800y586440
*8626 xofiller!SHFILL1_RVT!x729320y586440
*8627 xofiller!SHFILL1_RVT!x730840y586440
*8628 xofiller!SHFILL1_RVT!x732360y586440
*8629 xofiller!SHFILL1_RVT!x733880y586440
*8630 xofiller!SHFILL1_RVT!x735400y586440
*8631 xofiller!SHFILL1_RVT!x736920y586440
*8632 xofiller!SHFILL1_RVT!x738440y586440
*8633 xofiller!SHFILL1_RVT!x739960y586440
*8634 xofiller!SHFILL1_RVT!x741480y586440
*8635 xofiller!SHFILL1_RVT!x743000y586440
*8636 xofiller!SHFILL1_RVT!x744520y586440
*8637 xofiller!SHFILL1_RVT!x135000y603160
*8638 xofiller!SHFILL1_RVT!x136520y603160
*8639 xofiller!SHFILL1_RVT!x138040y603160
*8640 xofiller!SHFILL1_RVT!x139560y603160
*8641 xofiller!SHFILL1_RVT!x141080y603160
*8642 xofiller!SHFILL1_RVT!x142600y603160
*8643 xofiller!SHFILL1_RVT!x144120y603160
*8644 xofiller!SHFILL1_RVT!x145640y603160
*8645 xofiller!SHFILL1_RVT!x147160y603160
*8646 xofiller!SHFILL1_RVT!x148680y603160
*8647 xofiller!SHFILL1_RVT!x150200y603160
*8648 xofiller!SHFILL1_RVT!x151720y603160
*8649 xofiller!SHFILL1_RVT!x153240y603160
*8650 xofiller!SHFILL1_RVT!x154760y603160
*8651 xofiller!SHFILL1_RVT!x156280y603160
*8652 xofiller!SHFILL1_RVT!x157800y603160
*8653 xofiller!SHFILL1_RVT!x159320y603160
*8654 xofiller!SHFILL1_RVT!x160840y603160
*8655 xofiller!SHFILL1_RVT!x162360y603160
*8656 xofiller!SHFILL1_RVT!x163880y603160
*8657 xofiller!SHFILL1_RVT!x165400y603160
*8658 xofiller!SHFILL1_RVT!x166920y603160
*8659 xofiller!SHFILL1_RVT!x168440y603160
*8660 xofiller!SHFILL1_RVT!x169960y603160
*8661 xofiller!SHFILL1_RVT!x171480y603160
*8662 xofiller!SHFILL1_RVT!x173000y603160
*8663 xofiller!SHFILL1_RVT!x174520y603160
*8664 xofiller!SHFILL1_RVT!x176040y603160
*8665 xofiller!SHFILL1_RVT!x177560y603160
*8666 xofiller!SHFILL1_RVT!x179080y603160
*8667 xofiller!SHFILL1_RVT!x180600y603160
*8668 xofiller!SHFILL1_RVT!x182120y603160
*8669 xofiller!SHFILL1_RVT!x183640y603160
*8670 xofiller!SHFILL1_RVT!x185160y603160
*8671 xofiller!SHFILL1_RVT!x186680y603160
*8672 xofiller!SHFILL1_RVT!x188200y603160
*8673 xofiller!SHFILL1_RVT!x232280y603160
*8674 xofiller!SHFILL1_RVT!x233800y603160
*8675 xofiller!SHFILL1_RVT!x235320y603160
*8676 xofiller!SHFILL1_RVT!x236840y603160
*8677 xofiller!SHFILL1_RVT!x238360y603160
*8678 xofiller!SHFILL1_RVT!x239880y603160
*8679 xofiller!SHFILL1_RVT!x241400y603160
*8680 xofiller!SHFILL1_RVT!x242920y603160
*8681 xofiller!SHFILL1_RVT!x244440y603160
*8682 xofiller!SHFILL1_RVT!x245960y603160
*8683 xofiller!SHFILL1_RVT!x247480y603160
*8684 xofiller!SHFILL1_RVT!x249000y603160
*8685 xofiller!SHFILL1_RVT!x250520y603160
*8686 xofiller!SHFILL1_RVT!x252040y603160
*8687 xofiller!SHFILL1_RVT!x253560y603160
*8688 xofiller!SHFILL1_RVT!x255080y603160
*8689 xofiller!SHFILL1_RVT!x256600y603160
*8690 xofiller!SHFILL1_RVT!x258120y603160
*8691 xofiller!SHFILL1_RVT!x259640y603160
*8692 xofiller!SHFILL1_RVT!x261160y603160
*8693 xofiller!SHFILL1_RVT!x262680y603160
*8694 xofiller!SHFILL1_RVT!x264200y603160
*8695 xofiller!SHFILL1_RVT!x273320y603160
*8696 xofiller!SHFILL1_RVT!x274840y603160
*8697 xofiller!SHFILL1_RVT!x276360y603160
*8698 xofiller!SHFILL1_RVT!x277880y603160
*8699 xofiller!SHFILL1_RVT!x279400y603160
*8700 xofiller!SHFILL1_RVT!x280920y603160
*8701 xofiller!SHFILL1_RVT!x282440y603160
*8702 xofiller!SHFILL1_RVT!x283960y603160
*8703 xofiller!SHFILL1_RVT!x285480y603160
*8704 xofiller!SHFILL1_RVT!x287000y603160
*8705 xofiller!SHFILL1_RVT!x288520y603160
*8706 xofiller!SHFILL1_RVT!x290040y603160
*8707 xofiller!SHFILL1_RVT!x291560y603160
*8708 xofiller!SHFILL1_RVT!x293080y603160
*8709 xofiller!SHFILL1_RVT!x294600y603160
*8710 xofiller!SHFILL1_RVT!x296120y603160
*8711 xofiller!SHFILL1_RVT!x297640y603160
*8712 xofiller!SHFILL1_RVT!x299160y603160
*8713 xofiller!SHFILL1_RVT!x300680y603160
*8714 xofiller!SHFILL1_RVT!x309800y603160
*8715 xofiller!SHFILL1_RVT!x311320y603160
*8716 xofiller!SHFILL1_RVT!x312840y603160
*8717 xofiller!SHFILL1_RVT!x314360y603160
*8718 xofiller!SHFILL1_RVT!x315880y603160
*8719 xofiller!SHFILL1_RVT!x317400y603160
*8720 xofiller!SHFILL1_RVT!x318920y603160
*8721 xofiller!SHFILL1_RVT!x320440y603160
*8722 xofiller!SHFILL1_RVT!x321960y603160
*8723 xofiller!SHFILL1_RVT!x323480y603160
*8724 xofiller!SHFILL1_RVT!x325000y603160
*8725 xofiller!SHFILL1_RVT!x326520y603160
*8726 xofiller!SHFILL1_RVT!x328040y603160
*8727 xofiller!SHFILL1_RVT!x329560y603160
*8728 xofiller!SHFILL1_RVT!x331080y603160
*8729 xofiller!SHFILL1_RVT!x332600y603160
*8730 xofiller!SHFILL1_RVT!x334120y603160
*8731 xofiller!SHFILL1_RVT!x335640y603160
*8732 xofiller!SHFILL1_RVT!x337160y603160
*8733 xofiller!SHFILL1_RVT!x338680y603160
*8734 xofiller!SHFILL1_RVT!x340200y603160
*8735 xofiller!SHFILL1_RVT!x341720y603160
*8736 xofiller!SHFILL1_RVT!x343240y603160
*8737 xofiller!SHFILL1_RVT!x344760y603160
*8738 xofiller!SHFILL1_RVT!x346280y603160
*8739 xofiller!SHFILL1_RVT!x347800y603160
*8740 xofiller!SHFILL1_RVT!x349320y603160
*8741 xofiller!SHFILL1_RVT!x350840y603160
*8742 xofiller!SHFILL1_RVT!x352360y603160
*8743 xofiller!SHFILL1_RVT!x353880y603160
*8744 xofiller!SHFILL1_RVT!x355400y603160
*8745 xofiller!SHFILL1_RVT!x356920y603160
*8746 xofiller!SHFILL1_RVT!x373640y603160
*8747 xofiller!SHFILL1_RVT!x375160y603160
*8748 xofiller!SHFILL1_RVT!x376680y603160
*8749 xofiller!SHFILL1_RVT!x378200y603160
*8750 xofiller!SHFILL1_RVT!x379720y603160
*8751 xofiller!SHFILL1_RVT!x381240y603160
*8752 xofiller!SHFILL1_RVT!x382760y603160
*8753 xofiller!SHFILL1_RVT!x384280y603160
*8754 xofiller!SHFILL1_RVT!x385800y603160
*8755 xofiller!SHFILL1_RVT!x387320y603160
*8756 xofiller!SHFILL1_RVT!x388840y603160
*8757 xofiller!SHFILL1_RVT!x390360y603160
*8758 xofiller!SHFILL1_RVT!x391880y603160
*8759 xofiller!SHFILL1_RVT!x393400y603160
*8760 xofiller!SHFILL1_RVT!x394920y603160
*8761 xofiller!SHFILL1_RVT!x396440y603160
*8762 xofiller!SHFILL1_RVT!x405560y603160
*8763 xofiller!SHFILL1_RVT!x407080y603160
*8764 xofiller!SHFILL1_RVT!x408600y603160
*8765 xofiller!SHFILL1_RVT!x410120y603160
*8766 xofiller!SHFILL1_RVT!x411640y603160
*8767 xofiller!SHFILL1_RVT!x413160y603160
*8768 xofiller!SHFILL1_RVT!x414680y603160
*8769 xofiller!SHFILL1_RVT!x416200y603160
*8770 xofiller!SHFILL1_RVT!x417720y603160
*8771 xofiller!SHFILL1_RVT!x419240y603160
*8772 xofiller!SHFILL1_RVT!x420760y603160
*8773 xofiller!SHFILL1_RVT!x422280y603160
*8774 xofiller!SHFILL1_RVT!x423800y603160
*8775 xofiller!SHFILL1_RVT!x425320y603160
*8776 xofiller!SHFILL1_RVT!x426840y603160
*8777 xofiller!SHFILL1_RVT!x428360y603160
*8778 xofiller!SHFILL1_RVT!x429880y603160
*8779 xofiller!SHFILL1_RVT!x431400y603160
*8780 xofiller!SHFILL1_RVT!x445080y603160
*8781 xofiller!SHFILL1_RVT!x446600y603160
*8782 xofiller!SHFILL1_RVT!x448120y603160
*8783 xofiller!SHFILL1_RVT!x449640y603160
*8784 xofiller!SHFILL1_RVT!x451160y603160
*8785 xofiller!SHFILL1_RVT!x495240y603160
*8786 xofiller!SHFILL1_RVT!x496760y603160
*8787 xofiller!SHFILL1_RVT!x498280y603160
*8788 xofiller!SHFILL1_RVT!x499800y603160
*8789 xofiller!SHFILL1_RVT!x501320y603160
*8790 xofiller!SHFILL1_RVT!x502840y603160
*8791 xofiller!SHFILL1_RVT!x504360y603160
*8792 xofiller!SHFILL1_RVT!x505880y603160
*8793 xofiller!SHFILL1_RVT!x507400y603160
*8794 xofiller!SHFILL1_RVT!x508920y603160
*8795 xofiller!SHFILL1_RVT!x510440y603160
*8796 xofiller!SHFILL1_RVT!x511960y603160
*8797 xofiller!SHFILL1_RVT!x513480y603160
*8798 xofiller!SHFILL1_RVT!x515000y603160
*8799 xofiller!SHFILL1_RVT!x516520y603160
*8800 xofiller!SHFILL1_RVT!x518040y603160
*8801 xofiller!SHFILL1_RVT!x519560y603160
*8802 xofiller!SHFILL1_RVT!x521080y603160
*8803 xofiller!SHFILL1_RVT!x522600y603160
*8804 xofiller!SHFILL1_RVT!x524120y603160
*8805 xofiller!SHFILL1_RVT!x525640y603160
*8806 xofiller!SHFILL1_RVT!x527160y603160
*8807 xofiller!SHFILL1_RVT!x528680y603160
*8808 xofiller!SHFILL1_RVT!x530200y603160
*8809 xofiller!SHFILL1_RVT!x531720y603160
*8810 xofiller!SHFILL1_RVT!x533240y603160
*8811 xofiller!SHFILL1_RVT!x534760y603160
*8812 xofiller!SHFILL1_RVT!x536280y603160
*8813 xofiller!SHFILL1_RVT!x537800y603160
*8814 xofiller!SHFILL1_RVT!x539320y603160
*8815 xofiller!SHFILL1_RVT!x540840y603160
*8816 xofiller!SHFILL1_RVT!x542360y603160
*8817 xofiller!SHFILL1_RVT!x543880y603160
*8818 xofiller!SHFILL1_RVT!x545400y603160
*8819 xofiller!SHFILL1_RVT!x546920y603160
*8820 xofiller!SHFILL1_RVT!x548440y603160
*8821 xofiller!SHFILL1_RVT!x549960y603160
*8822 xofiller!SHFILL1_RVT!x551480y603160
*8823 xofiller!SHFILL1_RVT!x553000y603160
*8824 xofiller!SHFILL1_RVT!x554520y603160
*8825 xofiller!SHFILL1_RVT!x556040y603160
*8826 xofiller!SHFILL1_RVT!x557560y603160
*8827 xofiller!SHFILL1_RVT!x559080y603160
*8828 xofiller!SHFILL1_RVT!x560600y603160
*8829 xofiller!SHFILL1_RVT!x562120y603160
*8830 xofiller!SHFILL1_RVT!x563640y603160
*8831 xofiller!SHFILL1_RVT!x565160y603160
*8832 xofiller!SHFILL1_RVT!x566680y603160
*8833 xofiller!SHFILL1_RVT!x568200y603160
*8834 xofiller!SHFILL1_RVT!x569720y603160
*8835 xofiller!SHFILL1_RVT!x571240y603160
*8836 xofiller!SHFILL1_RVT!x572760y603160
*8837 xofiller!SHFILL1_RVT!x574280y603160
*8838 xofiller!SHFILL1_RVT!x575800y603160
*8839 xofiller!SHFILL1_RVT!x577320y603160
*8840 xofiller!SHFILL1_RVT!x578840y603160
*8841 xofiller!SHFILL1_RVT!x580360y603160
*8842 xofiller!SHFILL1_RVT!x581880y603160
*8843 xofiller!SHFILL1_RVT!x583400y603160
*8844 xofiller!SHFILL1_RVT!x584920y603160
*8845 xofiller!SHFILL1_RVT!x586440y603160
*8846 xofiller!SHFILL1_RVT!x587960y603160
*8847 xofiller!SHFILL1_RVT!x589480y603160
*8848 xofiller!SHFILL1_RVT!x591000y603160
*8849 xofiller!SHFILL1_RVT!x592520y603160
*8850 xofiller!SHFILL1_RVT!x594040y603160
*8851 xofiller!SHFILL1_RVT!x595560y603160
*8852 xofiller!SHFILL1_RVT!x597080y603160
*8853 xofiller!SHFILL1_RVT!x598600y603160
*8854 xofiller!SHFILL1_RVT!x600120y603160
*8855 xofiller!SHFILL1_RVT!x601640y603160
*8856 xofiller!SHFILL1_RVT!x612280y603160
*8857 xofiller!SHFILL1_RVT!x613800y603160
*8858 xofiller!SHFILL1_RVT!x615320y603160
*8859 xofiller!SHFILL1_RVT!x616840y603160
*8860 xofiller!SHFILL1_RVT!x618360y603160
*8861 xofiller!SHFILL1_RVT!x619880y603160
*8862 xofiller!SHFILL1_RVT!x621400y603160
*8863 xofiller!SHFILL1_RVT!x622920y603160
*8864 xofiller!SHFILL1_RVT!x624440y603160
*8865 xofiller!SHFILL1_RVT!x625960y603160
*8866 xofiller!SHFILL1_RVT!x627480y603160
*8867 xofiller!SHFILL1_RVT!x629000y603160
*8868 xofiller!SHFILL1_RVT!x630520y603160
*8869 xofiller!SHFILL1_RVT!x632040y603160
*8870 xofiller!SHFILL1_RVT!x633560y603160
*8871 xofiller!SHFILL1_RVT!x635080y603160
*8872 xofiller!SHFILL1_RVT!x636600y603160
*8873 xofiller!SHFILL1_RVT!x638120y603160
*8874 xofiller!SHFILL1_RVT!x639640y603160
*8875 xofiller!SHFILL1_RVT!x641160y603160
*8876 xofiller!SHFILL1_RVT!x642680y603160
*8877 xofiller!SHFILL1_RVT!x644200y603160
*8878 xofiller!SHFILL1_RVT!x645720y603160
*8879 xofiller!SHFILL1_RVT!x647240y603160
*8880 xofiller!SHFILL1_RVT!x648760y603160
*8881 xofiller!SHFILL1_RVT!x650280y603160
*8882 xofiller!SHFILL1_RVT!x651800y603160
*8883 xofiller!SHFILL1_RVT!x653320y603160
*8884 xofiller!SHFILL1_RVT!x654840y603160
*8885 xofiller!SHFILL1_RVT!x656360y603160
*8886 xofiller!SHFILL1_RVT!x670040y603160
*8887 xofiller!SHFILL1_RVT!x671560y603160
*8888 xofiller!SHFILL1_RVT!x673080y603160
*8889 xofiller!SHFILL1_RVT!x674600y603160
*8890 xofiller!SHFILL1_RVT!x676120y603160
*8891 xofiller!SHFILL1_RVT!x677640y603160
*8892 xofiller!SHFILL1_RVT!x679160y603160
*8893 xofiller!SHFILL1_RVT!x680680y603160
*8894 xofiller!SHFILL1_RVT!x682200y603160
*8895 xofiller!SHFILL1_RVT!x683720y603160
*8896 xofiller!SHFILL1_RVT!x685240y603160
*8897 xofiller!SHFILL1_RVT!x686760y603160
*8898 xofiller!SHFILL1_RVT!x688280y603160
*8899 xofiller!SHFILL1_RVT!x689800y603160
*8900 xofiller!SHFILL1_RVT!x691320y603160
*8901 xofiller!SHFILL1_RVT!x692840y603160
*8902 xofiller!SHFILL1_RVT!x694360y603160
*8903 xofiller!SHFILL1_RVT!x695880y603160
*8904 xofiller!SHFILL1_RVT!x697400y603160
*8905 xofiller!SHFILL1_RVT!x698920y603160
*8906 xofiller!SHFILL1_RVT!x700440y603160
*8907 xofiller!SHFILL1_RVT!x701960y603160
*8908 xofiller!SHFILL1_RVT!x703480y603160
*8909 xofiller!SHFILL1_RVT!x705000y603160
*8910 xofiller!SHFILL1_RVT!x706520y603160
*8911 xofiller!SHFILL1_RVT!x708040y603160
*8912 xofiller!SHFILL1_RVT!x709560y603160
*8913 xofiller!SHFILL1_RVT!x711080y603160
*8914 xofiller!SHFILL1_RVT!x712600y603160
*8915 xofiller!SHFILL1_RVT!x714120y603160
*8916 xofiller!SHFILL1_RVT!x715640y603160
*8917 xofiller!SHFILL1_RVT!x717160y603160
*8918 xofiller!SHFILL1_RVT!x718680y603160
*8919 xofiller!SHFILL1_RVT!x729320y603160
*8920 xofiller!SHFILL1_RVT!x730840y603160
*8921 xofiller!SHFILL1_RVT!x732360y603160
*8922 xofiller!SHFILL1_RVT!x733880y603160
*8923 xofiller!SHFILL1_RVT!x735400y603160
*8924 xofiller!SHFILL1_RVT!x736920y603160
*8925 xofiller!SHFILL1_RVT!x738440y603160
*8926 xofiller!SHFILL1_RVT!x739960y603160
*8927 xofiller!SHFILL1_RVT!x741480y603160
*8928 xofiller!SHFILL1_RVT!x743000y603160
*8929 xofiller!SHFILL1_RVT!x744520y603160
*8930 xofiller!SHFILL1_RVT!x135000y619880
*8931 xofiller!SHFILL1_RVT!x136520y619880
*8932 xofiller!SHFILL1_RVT!x138040y619880
*8933 xofiller!SHFILL1_RVT!x139560y619880
*8934 xofiller!SHFILL1_RVT!x141080y619880
*8935 xofiller!SHFILL1_RVT!x142600y619880
*8936 xofiller!SHFILL1_RVT!x144120y619880
*8937 xofiller!SHFILL1_RVT!x145640y619880
*8938 xofiller!SHFILL1_RVT!x147160y619880
*8939 xofiller!SHFILL1_RVT!x148680y619880
*8940 xofiller!SHFILL1_RVT!x150200y619880
*8941 xofiller!SHFILL1_RVT!x151720y619880
*8942 xofiller!SHFILL1_RVT!x153240y619880
*8943 xofiller!SHFILL1_RVT!x154760y619880
*8944 xofiller!SHFILL1_RVT!x156280y619880
*8945 xofiller!SHFILL1_RVT!x157800y619880
*8946 xofiller!SHFILL1_RVT!x171480y619880
*8947 xofiller!SHFILL1_RVT!x173000y619880
*8948 xofiller!SHFILL1_RVT!x174520y619880
*8949 xofiller!SHFILL1_RVT!x176040y619880
*8950 xofiller!SHFILL1_RVT!x177560y619880
*8951 xofiller!SHFILL1_RVT!x179080y619880
*8952 xofiller!SHFILL1_RVT!x180600y619880
*8953 xofiller!SHFILL1_RVT!x182120y619880
*8954 xofiller!SHFILL1_RVT!x183640y619880
*8955 xofiller!SHFILL1_RVT!x185160y619880
*8956 xofiller!SHFILL1_RVT!x186680y619880
*8957 xofiller!SHFILL1_RVT!x188200y619880
*8958 xofiller!SHFILL1_RVT!x189720y619880
*8959 xofiller!SHFILL1_RVT!x191240y619880
*8960 xofiller!SHFILL1_RVT!x192760y619880
*8961 xofiller!SHFILL1_RVT!x194280y619880
*8962 xofiller!SHFILL1_RVT!x195800y619880
*8963 xofiller!SHFILL1_RVT!x197320y619880
*8964 xofiller!SHFILL1_RVT!x198840y619880
*8965 xofiller!SHFILL1_RVT!x200360y619880
*8966 xofiller!SHFILL1_RVT!x201880y619880
*8967 xofiller!SHFILL1_RVT!x233800y619880
*8968 xofiller!SHFILL1_RVT!x235320y619880
*8969 xofiller!SHFILL1_RVT!x236840y619880
*8970 xofiller!SHFILL1_RVT!x238360y619880
*8971 xofiller!SHFILL1_RVT!x239880y619880
*8972 xofiller!SHFILL1_RVT!x241400y619880
*8973 xofiller!SHFILL1_RVT!x250520y619880
*8974 xofiller!SHFILL1_RVT!x252040y619880
*8975 xofiller!SHFILL1_RVT!x253560y619880
*8976 xofiller!SHFILL1_RVT!x255080y619880
*8977 xofiller!SHFILL1_RVT!x256600y619880
*8978 xofiller!SHFILL1_RVT!x258120y619880
*8979 xofiller!SHFILL1_RVT!x259640y619880
*8980 xofiller!SHFILL1_RVT!x261160y619880
*8981 xofiller!SHFILL1_RVT!x262680y619880
*8982 xofiller!SHFILL1_RVT!x264200y619880
*8983 xofiller!SHFILL1_RVT!x265720y619880
*8984 xofiller!SHFILL1_RVT!x267240y619880
*8985 xofiller!SHFILL1_RVT!x268760y619880
*8986 xofiller!SHFILL1_RVT!x270280y619880
*8987 xofiller!SHFILL1_RVT!x271800y619880
*8988 xofiller!SHFILL1_RVT!x273320y619880
*8989 xofiller!SHFILL1_RVT!x274840y619880
*8990 xofiller!SHFILL1_RVT!x276360y619880
*8991 xofiller!SHFILL1_RVT!x277880y619880
*8992 xofiller!SHFILL1_RVT!x279400y619880
*8993 xofiller!SHFILL1_RVT!x280920y619880
*8994 xofiller!SHFILL1_RVT!x282440y619880
*8995 xofiller!SHFILL1_RVT!x283960y619880
*8996 xofiller!SHFILL1_RVT!x285480y619880
*8997 xofiller!SHFILL1_RVT!x287000y619880
*8998 xofiller!SHFILL1_RVT!x288520y619880
*8999 xofiller!SHFILL1_RVT!x290040y619880
*9000 xofiller!SHFILL1_RVT!x291560y619880
*9001 xofiller!SHFILL1_RVT!x338680y619880
*9002 xofiller!SHFILL1_RVT!x340200y619880
*9003 xofiller!SHFILL1_RVT!x341720y619880
*9004 xofiller!SHFILL1_RVT!x343240y619880
*9005 xofiller!SHFILL1_RVT!x344760y619880
*9006 xofiller!SHFILL1_RVT!x346280y619880
*9007 xofiller!SHFILL1_RVT!x347800y619880
*9008 xofiller!SHFILL1_RVT!x349320y619880
*9009 xofiller!SHFILL1_RVT!x350840y619880
*9010 xofiller!SHFILL1_RVT!x352360y619880
*9011 xofiller!SHFILL1_RVT!x353880y619880
*9012 xofiller!SHFILL1_RVT!x355400y619880
*9013 xofiller!SHFILL1_RVT!x356920y619880
*9014 xofiller!SHFILL1_RVT!x358440y619880
*9015 xofiller!SHFILL1_RVT!x359960y619880
*9016 xofiller!SHFILL1_RVT!x361480y619880
*9017 xofiller!SHFILL1_RVT!x363000y619880
*9018 xofiller!SHFILL1_RVT!x364520y619880
*9019 xofiller!SHFILL1_RVT!x396440y619880
*9020 xofiller!SHFILL1_RVT!x397960y619880
*9021 xofiller!SHFILL1_RVT!x414680y619880
*9022 xofiller!SHFILL1_RVT!x416200y619880
*9023 xofiller!SHFILL1_RVT!x417720y619880
*9024 xofiller!SHFILL1_RVT!x504360y619880
*9025 xofiller!SHFILL1_RVT!x505880y619880
*9026 xofiller!SHFILL1_RVT!x507400y619880
*9027 xofiller!SHFILL1_RVT!x508920y619880
*9028 xofiller!SHFILL1_RVT!x510440y619880
*9029 xofiller!SHFILL1_RVT!x511960y619880
*9030 xofiller!SHFILL1_RVT!x513480y619880
*9031 xofiller!SHFILL1_RVT!x515000y619880
*9032 xofiller!SHFILL1_RVT!x516520y619880
*9033 xofiller!SHFILL1_RVT!x518040y619880
*9034 xofiller!SHFILL1_RVT!x519560y619880
*9035 xofiller!SHFILL1_RVT!x521080y619880
*9036 xofiller!SHFILL1_RVT!x522600y619880
*9037 xofiller!SHFILL1_RVT!x524120y619880
*9038 xofiller!SHFILL1_RVT!x525640y619880
*9039 xofiller!SHFILL1_RVT!x527160y619880
*9040 xofiller!SHFILL1_RVT!x528680y619880
*9041 xofiller!SHFILL1_RVT!x530200y619880
*9042 xofiller!SHFILL1_RVT!x531720y619880
*9043 xofiller!SHFILL1_RVT!x533240y619880
*9044 xofiller!SHFILL1_RVT!x534760y619880
*9045 xofiller!SHFILL1_RVT!x536280y619880
*9046 xofiller!SHFILL1_RVT!x537800y619880
*9047 xofiller!SHFILL1_RVT!x539320y619880
*9048 xofiller!SHFILL1_RVT!x540840y619880
*9049 xofiller!SHFILL1_RVT!x542360y619880
*9050 xofiller!SHFILL1_RVT!x543880y619880
*9051 xofiller!SHFILL1_RVT!x545400y619880
*9052 xofiller!SHFILL1_RVT!x546920y619880
*9053 xofiller!SHFILL1_RVT!x548440y619880
*9054 xofiller!SHFILL1_RVT!x549960y619880
*9055 xofiller!SHFILL1_RVT!x551480y619880
*9056 xofiller!SHFILL1_RVT!x553000y619880
*9057 xofiller!SHFILL1_RVT!x554520y619880
*9058 xofiller!SHFILL1_RVT!x556040y619880
*9059 xofiller!SHFILL1_RVT!x557560y619880
*9060 xofiller!SHFILL1_RVT!x559080y619880
*9061 xofiller!SHFILL1_RVT!x560600y619880
*9062 xofiller!SHFILL1_RVT!x562120y619880
*9063 xofiller!SHFILL1_RVT!x563640y619880
*9064 xofiller!SHFILL1_RVT!x565160y619880
*9065 xofiller!SHFILL1_RVT!x566680y619880
*9066 xofiller!SHFILL1_RVT!x568200y619880
*9067 xofiller!SHFILL1_RVT!x569720y619880
*9068 xofiller!SHFILL1_RVT!x571240y619880
*9069 xofiller!SHFILL1_RVT!x572760y619880
*9070 xofiller!SHFILL1_RVT!x574280y619880
*9071 xofiller!SHFILL1_RVT!x575800y619880
*9072 xofiller!SHFILL1_RVT!x577320y619880
*9073 xofiller!SHFILL1_RVT!x578840y619880
*9074 xofiller!SHFILL1_RVT!x580360y619880
*9075 xofiller!SHFILL1_RVT!x581880y619880
*9076 xofiller!SHFILL1_RVT!x583400y619880
*9077 xofiller!SHFILL1_RVT!x584920y619880
*9078 xofiller!SHFILL1_RVT!x586440y619880
*9079 xofiller!SHFILL1_RVT!x587960y619880
*9080 xofiller!SHFILL1_RVT!x589480y619880
*9081 xofiller!SHFILL1_RVT!x591000y619880
*9082 xofiller!SHFILL1_RVT!x592520y619880
*9083 xofiller!SHFILL1_RVT!x633560y619880
*9084 xofiller!SHFILL1_RVT!x635080y619880
*9085 xofiller!SHFILL1_RVT!x636600y619880
*9086 xofiller!SHFILL1_RVT!x638120y619880
*9087 xofiller!SHFILL1_RVT!x639640y619880
*9088 xofiller!SHFILL1_RVT!x641160y619880
*9089 xofiller!SHFILL1_RVT!x642680y619880
*9090 xofiller!SHFILL1_RVT!x644200y619880
*9091 xofiller!SHFILL1_RVT!x645720y619880
*9092 xofiller!SHFILL1_RVT!x647240y619880
*9093 xofiller!SHFILL1_RVT!x648760y619880
*9094 xofiller!SHFILL1_RVT!x650280y619880
*9095 xofiller!SHFILL1_RVT!x651800y619880
*9096 xofiller!SHFILL1_RVT!x653320y619880
*9097 xofiller!SHFILL1_RVT!x654840y619880
*9098 xofiller!SHFILL1_RVT!x656360y619880
*9099 xofiller!SHFILL1_RVT!x657880y619880
*9100 xofiller!SHFILL1_RVT!x659400y619880
*9101 xofiller!SHFILL1_RVT!x660920y619880
*9102 xofiller!SHFILL1_RVT!x662440y619880
*9103 xofiller!SHFILL1_RVT!x663960y619880
*9104 xofiller!SHFILL1_RVT!x665480y619880
*9105 xofiller!SHFILL1_RVT!x667000y619880
*9106 xofiller!SHFILL1_RVT!x668520y619880
*9107 xofiller!SHFILL1_RVT!x670040y619880
*9108 xofiller!SHFILL1_RVT!x671560y619880
*9109 xofiller!SHFILL1_RVT!x673080y619880
*9110 xofiller!SHFILL1_RVT!x674600y619880
*9111 xofiller!SHFILL1_RVT!x676120y619880
*9112 xofiller!SHFILL1_RVT!x677640y619880
*9113 xofiller!SHFILL1_RVT!x679160y619880
*9114 xofiller!SHFILL1_RVT!x680680y619880
*9115 xofiller!SHFILL1_RVT!x682200y619880
*9116 xofiller!SHFILL1_RVT!x683720y619880
*9117 xofiller!SHFILL1_RVT!x685240y619880
*9118 xofiller!SHFILL1_RVT!x686760y619880
*9119 xofiller!SHFILL1_RVT!x688280y619880
*9120 xofiller!SHFILL1_RVT!x689800y619880
*9121 xofiller!SHFILL1_RVT!x691320y619880
*9122 xofiller!SHFILL1_RVT!x692840y619880
*9123 xofiller!SHFILL1_RVT!x694360y619880
*9124 xofiller!SHFILL1_RVT!x695880y619880
*9125 xofiller!SHFILL1_RVT!x697400y619880
*9126 xofiller!SHFILL1_RVT!x698920y619880
*9127 xofiller!SHFILL1_RVT!x700440y619880
*9128 xofiller!SHFILL1_RVT!x701960y619880
*9129 xofiller!SHFILL1_RVT!x703480y619880
*9130 xofiller!SHFILL1_RVT!x705000y619880
*9131 xofiller!SHFILL1_RVT!x706520y619880
*9132 xofiller!SHFILL1_RVT!x708040y619880
*9133 xofiller!SHFILL1_RVT!x709560y619880
*9134 xofiller!SHFILL1_RVT!x711080y619880
*9135 xofiller!SHFILL1_RVT!x712600y619880
*9136 xofiller!SHFILL1_RVT!x714120y619880
*9137 xofiller!SHFILL1_RVT!x715640y619880
*9138 xofiller!SHFILL1_RVT!x717160y619880
*9139 xofiller!SHFILL1_RVT!x718680y619880
*9140 xofiller!SHFILL1_RVT!x720200y619880
*9141 xofiller!SHFILL1_RVT!x721720y619880
*9142 xofiller!SHFILL1_RVT!x723240y619880
*9143 xofiller!SHFILL1_RVT!x724760y619880
*9144 xofiller!SHFILL1_RVT!x726280y619880
*9145 xofiller!SHFILL1_RVT!x727800y619880
*9146 xofiller!SHFILL1_RVT!x729320y619880
*9147 xofiller!SHFILL1_RVT!x730840y619880
*9148 xofiller!SHFILL1_RVT!x732360y619880
*9149 xofiller!SHFILL1_RVT!x733880y619880
*9150 xofiller!SHFILL1_RVT!x735400y619880
*9151 xofiller!SHFILL1_RVT!x736920y619880
*9152 xofiller!SHFILL1_RVT!x738440y619880
*9153 xofiller!SHFILL1_RVT!x739960y619880
*9154 xofiller!SHFILL1_RVT!x741480y619880
*9155 xofiller!SHFILL1_RVT!x743000y619880
*9156 xofiller!SHFILL1_RVT!x744520y619880
*9157 xofiller!SHFILL1_RVT!x135000y636600
*9158 xofiller!SHFILL1_RVT!x136520y636600
*9159 xofiller!SHFILL1_RVT!x138040y636600
*9160 xofiller!SHFILL1_RVT!x139560y636600
*9161 xofiller!SHFILL1_RVT!x141080y636600
*9162 xofiller!SHFILL1_RVT!x142600y636600
*9163 xofiller!SHFILL1_RVT!x144120y636600
*9164 xofiller!SHFILL1_RVT!x145640y636600
*9165 xofiller!SHFILL1_RVT!x147160y636600
*9166 xofiller!SHFILL1_RVT!x148680y636600
*9167 xofiller!SHFILL1_RVT!x150200y636600
*9168 xofiller!SHFILL1_RVT!x151720y636600
*9169 xofiller!SHFILL1_RVT!x153240y636600
*9170 xofiller!SHFILL1_RVT!x154760y636600
*9171 xofiller!SHFILL1_RVT!x156280y636600
*9172 xofiller!SHFILL1_RVT!x157800y636600
*9173 xofiller!SHFILL1_RVT!x159320y636600
*9174 xofiller!SHFILL1_RVT!x160840y636600
*9175 xofiller!SHFILL1_RVT!x162360y636600
*9176 xofiller!SHFILL1_RVT!x163880y636600
*9177 xofiller!SHFILL1_RVT!x165400y636600
*9178 xofiller!SHFILL1_RVT!x166920y636600
*9179 xofiller!SHFILL1_RVT!x168440y636600
*9180 xofiller!SHFILL1_RVT!x169960y636600
*9181 xofiller!SHFILL1_RVT!x171480y636600
*9182 xofiller!SHFILL1_RVT!x173000y636600
*9183 xofiller!SHFILL1_RVT!x174520y636600
*9184 xofiller!SHFILL1_RVT!x176040y636600
*9185 xofiller!SHFILL1_RVT!x177560y636600
*9186 xofiller!SHFILL1_RVT!x179080y636600
*9187 xofiller!SHFILL1_RVT!x180600y636600
*9188 xofiller!SHFILL1_RVT!x182120y636600
*9189 xofiller!SHFILL1_RVT!x183640y636600
*9190 xofiller!SHFILL1_RVT!x185160y636600
*9191 xofiller!SHFILL1_RVT!x186680y636600
*9192 xofiller!SHFILL1_RVT!x188200y636600
*9193 xofiller!SHFILL1_RVT!x189720y636600
*9194 xofiller!SHFILL1_RVT!x191240y636600
*9195 xofiller!SHFILL1_RVT!x235320y636600
*9196 xofiller!SHFILL1_RVT!x236840y636600
*9197 xofiller!SHFILL1_RVT!x238360y636600
*9198 xofiller!SHFILL1_RVT!x239880y636600
*9199 xofiller!SHFILL1_RVT!x241400y636600
*9200 xofiller!SHFILL1_RVT!x242920y636600
*9201 xofiller!SHFILL1_RVT!x244440y636600
*9202 xofiller!SHFILL1_RVT!x245960y636600
*9203 xofiller!SHFILL1_RVT!x247480y636600
*9204 xofiller!SHFILL1_RVT!x294600y636600
*9205 xofiller!SHFILL1_RVT!x296120y636600
*9206 xofiller!SHFILL1_RVT!x297640y636600
*9207 xofiller!SHFILL1_RVT!x299160y636600
*9208 xofiller!SHFILL1_RVT!x300680y636600
*9209 xofiller!SHFILL1_RVT!x302200y636600
*9210 xofiller!SHFILL1_RVT!x303720y636600
*9211 xofiller!SHFILL1_RVT!x305240y636600
*9212 xofiller!SHFILL1_RVT!x306760y636600
*9213 xofiller!SHFILL1_RVT!x308280y636600
*9214 xofiller!SHFILL1_RVT!x309800y636600
*9215 xofiller!SHFILL1_RVT!x311320y636600
*9216 xofiller!SHFILL1_RVT!x312840y636600
*9217 xofiller!SHFILL1_RVT!x314360y636600
*9218 xofiller!SHFILL1_RVT!x315880y636600
*9219 xofiller!SHFILL1_RVT!x317400y636600
*9220 xofiller!SHFILL1_RVT!x318920y636600
*9221 xofiller!SHFILL1_RVT!x320440y636600
*9222 xofiller!SHFILL1_RVT!x321960y636600
*9223 xofiller!SHFILL1_RVT!x323480y636600
*9224 xofiller!SHFILL1_RVT!x325000y636600
*9225 xofiller!SHFILL1_RVT!x326520y636600
*9226 xofiller!SHFILL1_RVT!x328040y636600
*9227 xofiller!SHFILL1_RVT!x329560y636600
*9228 xofiller!SHFILL1_RVT!x331080y636600
*9229 xofiller!SHFILL1_RVT!x332600y636600
*9230 xofiller!SHFILL1_RVT!x334120y636600
*9231 xofiller!SHFILL1_RVT!x335640y636600
*9232 xofiller!SHFILL1_RVT!x337160y636600
*9233 xofiller!SHFILL1_RVT!x338680y636600
*9234 xofiller!SHFILL1_RVT!x340200y636600
*9235 xofiller!SHFILL1_RVT!x341720y636600
*9236 xofiller!SHFILL1_RVT!x343240y636600
*9237 xofiller!SHFILL1_RVT!x344760y636600
*9238 xofiller!SHFILL1_RVT!x443560y636600
*9239 xofiller!SHFILL1_RVT!x445080y636600
*9240 xofiller!SHFILL1_RVT!x446600y636600
*9241 xofiller!SHFILL1_RVT!x448120y636600
*9242 xofiller!SHFILL1_RVT!x449640y636600
*9243 xofiller!SHFILL1_RVT!x451160y636600
*9244 xofiller!SHFILL1_RVT!x452680y636600
*9245 xofiller!SHFILL1_RVT!x454200y636600
*9246 xofiller!SHFILL1_RVT!x455720y636600
*9247 xofiller!SHFILL1_RVT!x457240y636600
*9248 xofiller!SHFILL1_RVT!x458760y636600
*9249 xofiller!SHFILL1_RVT!x460280y636600
*9250 xofiller!SHFILL1_RVT!x461800y636600
*9251 xofiller!SHFILL1_RVT!x463320y636600
*9252 xofiller!SHFILL1_RVT!x464840y636600
*9253 xofiller!SHFILL1_RVT!x466360y636600
*9254 xofiller!SHFILL1_RVT!x467880y636600
*9255 xofiller!SHFILL1_RVT!x469400y636600
*9256 xofiller!SHFILL1_RVT!x470920y636600
*9257 xofiller!SHFILL1_RVT!x472440y636600
*9258 xofiller!SHFILL1_RVT!x473960y636600
*9259 xofiller!SHFILL1_RVT!x475480y636600
*9260 xofiller!SHFILL1_RVT!x477000y636600
*9261 xofiller!SHFILL1_RVT!x478520y636600
*9262 xofiller!SHFILL1_RVT!x480040y636600
*9263 xofiller!SHFILL1_RVT!x481560y636600
*9264 xofiller!SHFILL1_RVT!x483080y636600
*9265 xofiller!SHFILL1_RVT!x484600y636600
*9266 xofiller!SHFILL1_RVT!x486120y636600
*9267 xofiller!SHFILL1_RVT!x487640y636600
*9268 xofiller!SHFILL1_RVT!x489160y636600
*9269 xofiller!SHFILL1_RVT!x490680y636600
*9270 xofiller!SHFILL1_RVT!x492200y636600
*9271 xofiller!SHFILL1_RVT!x493720y636600
*9272 xofiller!SHFILL1_RVT!x495240y636600
*9273 xofiller!SHFILL1_RVT!x496760y636600
*9274 xofiller!SHFILL1_RVT!x498280y636600
*9275 xofiller!SHFILL1_RVT!x499800y636600
*9276 xofiller!SHFILL1_RVT!x501320y636600
*9277 xofiller!SHFILL1_RVT!x502840y636600
*9278 xofiller!SHFILL1_RVT!x504360y636600
*9279 xofiller!SHFILL1_RVT!x505880y636600
*9280 xofiller!SHFILL1_RVT!x507400y636600
*9281 xofiller!SHFILL1_RVT!x508920y636600
*9282 xofiller!SHFILL1_RVT!x510440y636600
*9283 xofiller!SHFILL1_RVT!x511960y636600
*9284 xofiller!SHFILL1_RVT!x513480y636600
*9285 xofiller!SHFILL1_RVT!x515000y636600
*9286 xofiller!SHFILL1_RVT!x516520y636600
*9287 xofiller!SHFILL1_RVT!x518040y636600
*9288 xofiller!SHFILL1_RVT!x519560y636600
*9289 xofiller!SHFILL1_RVT!x521080y636600
*9290 xofiller!SHFILL1_RVT!x522600y636600
*9291 xofiller!SHFILL1_RVT!x524120y636600
*9292 xofiller!SHFILL1_RVT!x525640y636600
*9293 xofiller!SHFILL1_RVT!x527160y636600
*9294 xofiller!SHFILL1_RVT!x528680y636600
*9295 xofiller!SHFILL1_RVT!x530200y636600
*9296 xofiller!SHFILL1_RVT!x531720y636600
*9297 xofiller!SHFILL1_RVT!x533240y636600
*9298 xofiller!SHFILL1_RVT!x534760y636600
*9299 xofiller!SHFILL1_RVT!x536280y636600
*9300 xofiller!SHFILL1_RVT!x537800y636600
*9301 xofiller!SHFILL1_RVT!x539320y636600
*9302 xofiller!SHFILL1_RVT!x540840y636600
*9303 xofiller!SHFILL1_RVT!x542360y636600
*9304 xofiller!SHFILL1_RVT!x543880y636600
*9305 xofiller!SHFILL1_RVT!x545400y636600
*9306 xofiller!SHFILL1_RVT!x546920y636600
*9307 xofiller!SHFILL1_RVT!x548440y636600
*9308 xofiller!SHFILL1_RVT!x549960y636600
*9309 xofiller!SHFILL1_RVT!x551480y636600
*9310 xofiller!SHFILL1_RVT!x553000y636600
*9311 xofiller!SHFILL1_RVT!x554520y636600
*9312 xofiller!SHFILL1_RVT!x556040y636600
*9313 xofiller!SHFILL1_RVT!x557560y636600
*9314 xofiller!SHFILL1_RVT!x559080y636600
*9315 xofiller!SHFILL1_RVT!x560600y636600
*9316 xofiller!SHFILL1_RVT!x562120y636600
*9317 xofiller!SHFILL1_RVT!x563640y636600
*9318 xofiller!SHFILL1_RVT!x565160y636600
*9319 xofiller!SHFILL1_RVT!x566680y636600
*9320 xofiller!SHFILL1_RVT!x568200y636600
*9321 xofiller!SHFILL1_RVT!x569720y636600
*9322 xofiller!SHFILL1_RVT!x571240y636600
*9323 xofiller!SHFILL1_RVT!x572760y636600
*9324 xofiller!SHFILL1_RVT!x574280y636600
*9325 xofiller!SHFILL1_RVT!x575800y636600
*9326 xofiller!SHFILL1_RVT!x577320y636600
*9327 xofiller!SHFILL1_RVT!x578840y636600
*9328 xofiller!SHFILL1_RVT!x580360y636600
*9329 xofiller!SHFILL1_RVT!x581880y636600
*9330 xofiller!SHFILL1_RVT!x583400y636600
*9331 xofiller!SHFILL1_RVT!x584920y636600
*9332 xofiller!SHFILL1_RVT!x586440y636600
*9333 xofiller!SHFILL1_RVT!x587960y636600
*9334 xofiller!SHFILL1_RVT!x589480y636600
*9335 xofiller!SHFILL1_RVT!x591000y636600
*9336 xofiller!SHFILL1_RVT!x592520y636600
*9337 xofiller!SHFILL1_RVT!x594040y636600
*9338 xofiller!SHFILL1_RVT!x595560y636600
*9339 xofiller!SHFILL1_RVT!x597080y636600
*9340 xofiller!SHFILL1_RVT!x598600y636600
*9341 xofiller!SHFILL1_RVT!x600120y636600
*9342 xofiller!SHFILL1_RVT!x601640y636600
*9343 xofiller!SHFILL1_RVT!x603160y636600
*9344 xofiller!SHFILL1_RVT!x604680y636600
*9345 xofiller!SHFILL1_RVT!x606200y636600
*9346 xofiller!SHFILL1_RVT!x607720y636600
*9347 xofiller!SHFILL1_RVT!x609240y636600
*9348 xofiller!SHFILL1_RVT!x610760y636600
*9349 xofiller!SHFILL1_RVT!x612280y636600
*9350 xofiller!SHFILL1_RVT!x613800y636600
*9351 xofiller!SHFILL1_RVT!x615320y636600
*9352 xofiller!SHFILL1_RVT!x616840y636600
*9353 xofiller!SHFILL1_RVT!x618360y636600
*9354 xofiller!SHFILL1_RVT!x619880y636600
*9355 xofiller!SHFILL1_RVT!x621400y636600
*9356 xofiller!SHFILL1_RVT!x622920y636600
*9357 xofiller!SHFILL1_RVT!x624440y636600
*9358 xofiller!SHFILL1_RVT!x625960y636600
*9359 xofiller!SHFILL1_RVT!x627480y636600
*9360 xofiller!SHFILL1_RVT!x629000y636600
*9361 xofiller!SHFILL1_RVT!x630520y636600
*9362 xofiller!SHFILL1_RVT!x632040y636600
*9363 xofiller!SHFILL1_RVT!x633560y636600
*9364 xofiller!SHFILL1_RVT!x635080y636600
*9365 xofiller!SHFILL1_RVT!x636600y636600
*9366 xofiller!SHFILL1_RVT!x638120y636600
*9367 xofiller!SHFILL1_RVT!x639640y636600
*9368 xofiller!SHFILL1_RVT!x641160y636600
*9369 xofiller!SHFILL1_RVT!x642680y636600
*9370 xofiller!SHFILL1_RVT!x644200y636600
*9371 xofiller!SHFILL1_RVT!x657880y636600
*9372 xofiller!SHFILL1_RVT!x659400y636600
*9373 xofiller!SHFILL1_RVT!x660920y636600
*9374 xofiller!SHFILL1_RVT!x662440y636600
*9375 xofiller!SHFILL1_RVT!x663960y636600
*9376 xofiller!SHFILL1_RVT!x665480y636600
*9377 xofiller!SHFILL1_RVT!x667000y636600
*9378 xofiller!SHFILL1_RVT!x668520y636600
*9379 xofiller!SHFILL1_RVT!x670040y636600
*9380 xofiller!SHFILL1_RVT!x671560y636600
*9381 xofiller!SHFILL1_RVT!x673080y636600
*9382 xofiller!SHFILL1_RVT!x674600y636600
*9383 xofiller!SHFILL1_RVT!x676120y636600
*9384 xofiller!SHFILL1_RVT!x677640y636600
*9385 xofiller!SHFILL1_RVT!x679160y636600
*9386 xofiller!SHFILL1_RVT!x680680y636600
*9387 xofiller!SHFILL1_RVT!x682200y636600
*9388 xofiller!SHFILL1_RVT!x683720y636600
*9389 xofiller!SHFILL1_RVT!x685240y636600
*9390 xofiller!SHFILL1_RVT!x686760y636600
*9391 xofiller!SHFILL1_RVT!x688280y636600
*9392 xofiller!SHFILL1_RVT!x689800y636600
*9393 xofiller!SHFILL1_RVT!x691320y636600
*9394 xofiller!SHFILL1_RVT!x692840y636600
*9395 xofiller!SHFILL1_RVT!x694360y636600
*9396 xofiller!SHFILL1_RVT!x695880y636600
*9397 xofiller!SHFILL1_RVT!x697400y636600
*9398 xofiller!SHFILL1_RVT!x698920y636600
*9399 xofiller!SHFILL1_RVT!x700440y636600
*9400 xofiller!SHFILL1_RVT!x701960y636600
*9401 xofiller!SHFILL1_RVT!x703480y636600
*9402 xofiller!SHFILL1_RVT!x705000y636600
*9403 xofiller!SHFILL1_RVT!x721720y636600
*9404 xofiller!SHFILL1_RVT!x723240y636600
*9405 xofiller!SHFILL1_RVT!x724760y636600
*9406 xofiller!SHFILL1_RVT!x726280y636600
*9407 xofiller!SHFILL1_RVT!x727800y636600
*9408 xofiller!SHFILL1_RVT!x729320y636600
*9409 xofiller!SHFILL1_RVT!x730840y636600
*9410 xofiller!SHFILL1_RVT!x732360y636600
*9411 xofiller!SHFILL1_RVT!x733880y636600
*9412 xofiller!SHFILL1_RVT!x735400y636600
*9413 xofiller!SHFILL1_RVT!x736920y636600
*9414 xofiller!SHFILL1_RVT!x738440y636600
*9415 xofiller!SHFILL1_RVT!x739960y636600
*9416 xofiller!SHFILL1_RVT!x741480y636600
*9417 xofiller!SHFILL1_RVT!x743000y636600
*9418 xofiller!SHFILL1_RVT!x744520y636600
*9419 xofiller!SHFILL1_RVT!x135000y653320
*9420 xofiller!SHFILL1_RVT!x136520y653320
*9421 xofiller!SHFILL1_RVT!x138040y653320
*9422 xofiller!SHFILL1_RVT!x139560y653320
*9423 xofiller!SHFILL1_RVT!x141080y653320
*9424 xofiller!SHFILL1_RVT!x142600y653320
*9425 xofiller!SHFILL1_RVT!x144120y653320
*9426 xofiller!SHFILL1_RVT!x145640y653320
*9427 xofiller!SHFILL1_RVT!x147160y653320
*9428 xofiller!SHFILL1_RVT!x148680y653320
*9429 xofiller!SHFILL1_RVT!x150200y653320
*9430 xofiller!SHFILL1_RVT!x151720y653320
*9431 xofiller!SHFILL1_RVT!x153240y653320
*9432 xofiller!SHFILL1_RVT!x154760y653320
*9433 xofiller!SHFILL1_RVT!x156280y653320
*9434 xofiller!SHFILL1_RVT!x157800y653320
*9435 xofiller!SHFILL1_RVT!x159320y653320
*9436 xofiller!SHFILL1_RVT!x160840y653320
*9437 xofiller!SHFILL1_RVT!x162360y653320
*9438 xofiller!SHFILL1_RVT!x163880y653320
*9439 xofiller!SHFILL1_RVT!x165400y653320
*9440 xofiller!SHFILL1_RVT!x166920y653320
*9441 xofiller!SHFILL1_RVT!x168440y653320
*9442 xofiller!SHFILL1_RVT!x169960y653320
*9443 xofiller!SHFILL1_RVT!x171480y653320
*9444 xofiller!SHFILL1_RVT!x173000y653320
*9445 xofiller!SHFILL1_RVT!x174520y653320
*9446 xofiller!SHFILL1_RVT!x176040y653320
*9447 xofiller!SHFILL1_RVT!x177560y653320
*9448 xofiller!SHFILL1_RVT!x179080y653320
*9449 xofiller!SHFILL1_RVT!x180600y653320
*9450 xofiller!SHFILL1_RVT!x182120y653320
*9451 xofiller!SHFILL1_RVT!x183640y653320
*9452 xofiller!SHFILL1_RVT!x185160y653320
*9453 xofiller!SHFILL1_RVT!x186680y653320
*9454 xofiller!SHFILL1_RVT!x188200y653320
*9455 xofiller!SHFILL1_RVT!x189720y653320
*9456 xofiller!SHFILL1_RVT!x191240y653320
*9457 xofiller!SHFILL1_RVT!x192760y653320
*9458 xofiller!SHFILL1_RVT!x194280y653320
*9459 xofiller!SHFILL1_RVT!x195800y653320
*9460 xofiller!SHFILL1_RVT!x197320y653320
*9461 xofiller!SHFILL1_RVT!x198840y653320
*9462 xofiller!SHFILL1_RVT!x200360y653320
*9463 xofiller!SHFILL1_RVT!x201880y653320
*9464 xofiller!SHFILL1_RVT!x203400y653320
*9465 xofiller!SHFILL1_RVT!x204920y653320
*9466 xofiller!SHFILL1_RVT!x206440y653320
*9467 xofiller!SHFILL1_RVT!x207960y653320
*9468 xofiller!SHFILL1_RVT!x209480y653320
*9469 xofiller!SHFILL1_RVT!x211000y653320
*9470 xofiller!SHFILL1_RVT!x212520y653320
*9471 xofiller!SHFILL1_RVT!x214040y653320
*9472 xofiller!SHFILL1_RVT!x215560y653320
*9473 xofiller!SHFILL1_RVT!x217080y653320
*9474 xofiller!SHFILL1_RVT!x218600y653320
*9475 xofiller!SHFILL1_RVT!x220120y653320
*9476 xofiller!SHFILL1_RVT!x221640y653320
*9477 xofiller!SHFILL1_RVT!x223160y653320
*9478 xofiller!SHFILL1_RVT!x224680y653320
*9479 xofiller!SHFILL1_RVT!x226200y653320
*9480 xofiller!SHFILL1_RVT!x227720y653320
*9481 xofiller!SHFILL1_RVT!x229240y653320
*9482 xofiller!SHFILL1_RVT!x230760y653320
*9483 xofiller!SHFILL1_RVT!x232280y653320
*9484 xofiller!SHFILL1_RVT!x233800y653320
*9485 xofiller!SHFILL1_RVT!x235320y653320
*9486 xofiller!SHFILL1_RVT!x236840y653320
*9487 xofiller!SHFILL1_RVT!x238360y653320
*9488 xofiller!SHFILL1_RVT!x239880y653320
*9489 xofiller!SHFILL1_RVT!x241400y653320
*9490 xofiller!SHFILL1_RVT!x242920y653320
*9491 xofiller!SHFILL1_RVT!x244440y653320
*9492 xofiller!SHFILL1_RVT!x245960y653320
*9493 xofiller!SHFILL1_RVT!x247480y653320
*9494 xofiller!SHFILL1_RVT!x249000y653320
*9495 xofiller!SHFILL1_RVT!x250520y653320
*9496 xofiller!SHFILL1_RVT!x252040y653320
*9497 xofiller!SHFILL1_RVT!x253560y653320
*9498 xofiller!SHFILL1_RVT!x297640y653320
*9499 xofiller!SHFILL1_RVT!x299160y653320
*9500 xofiller!SHFILL1_RVT!x343240y653320
*9501 xofiller!SHFILL1_RVT!x344760y653320
*9502 xofiller!SHFILL1_RVT!x346280y653320
*9503 xofiller!SHFILL1_RVT!x347800y653320
*9504 xofiller!SHFILL1_RVT!x349320y653320
*9505 xofiller!SHFILL1_RVT!x350840y653320
*9506 xofiller!SHFILL1_RVT!x352360y653320
*9507 xofiller!SHFILL1_RVT!x353880y653320
*9508 xofiller!SHFILL1_RVT!x355400y653320
*9509 xofiller!SHFILL1_RVT!x356920y653320
*9510 xofiller!SHFILL1_RVT!x358440y653320
*9511 xofiller!SHFILL1_RVT!x359960y653320
*9512 xofiller!SHFILL1_RVT!x361480y653320
*9513 xofiller!SHFILL1_RVT!x363000y653320
*9514 xofiller!SHFILL1_RVT!x364520y653320
*9515 xofiller!SHFILL1_RVT!x366040y653320
*9516 xofiller!SHFILL1_RVT!x367560y653320
*9517 xofiller!SHFILL1_RVT!x369080y653320
*9518 xofiller!SHFILL1_RVT!x370600y653320
*9519 xofiller!SHFILL1_RVT!x372120y653320
*9520 xofiller!SHFILL1_RVT!x373640y653320
*9521 xofiller!SHFILL1_RVT!x375160y653320
*9522 xofiller!SHFILL1_RVT!x376680y653320
*9523 xofiller!SHFILL1_RVT!x378200y653320
*9524 xofiller!SHFILL1_RVT!x379720y653320
*9525 xofiller!SHFILL1_RVT!x381240y653320
*9526 xofiller!SHFILL1_RVT!x382760y653320
*9527 xofiller!SHFILL1_RVT!x384280y653320
*9528 xofiller!SHFILL1_RVT!x385800y653320
*9529 xofiller!SHFILL1_RVT!x387320y653320
*9530 xofiller!SHFILL1_RVT!x388840y653320
*9531 xofiller!SHFILL1_RVT!x390360y653320
*9532 xofiller!SHFILL1_RVT!x391880y653320
*9533 xofiller!SHFILL1_RVT!x393400y653320
*9534 xofiller!SHFILL1_RVT!x394920y653320
*9535 xofiller!SHFILL1_RVT!x396440y653320
*9536 xofiller!SHFILL1_RVT!x440520y653320
*9537 xofiller!SHFILL1_RVT!x442040y653320
*9538 xofiller!SHFILL1_RVT!x443560y653320
*9539 xofiller!SHFILL1_RVT!x445080y653320
*9540 xofiller!SHFILL1_RVT!x446600y653320
*9541 xofiller!SHFILL1_RVT!x448120y653320
*9542 xofiller!SHFILL1_RVT!x449640y653320
*9543 xofiller!SHFILL1_RVT!x451160y653320
*9544 xofiller!SHFILL1_RVT!x452680y653320
*9545 xofiller!SHFILL1_RVT!x454200y653320
*9546 xofiller!SHFILL1_RVT!x455720y653320
*9547 xofiller!SHFILL1_RVT!x457240y653320
*9548 xofiller!SHFILL1_RVT!x458760y653320
*9549 xofiller!SHFILL1_RVT!x460280y653320
*9550 xofiller!SHFILL1_RVT!x461800y653320
*9551 xofiller!SHFILL1_RVT!x463320y653320
*9552 xofiller!SHFILL1_RVT!x464840y653320
*9553 xofiller!SHFILL1_RVT!x466360y653320
*9554 xofiller!SHFILL1_RVT!x467880y653320
*9555 xofiller!SHFILL1_RVT!x469400y653320
*9556 xofiller!SHFILL1_RVT!x470920y653320
*9557 xofiller!SHFILL1_RVT!x472440y653320
*9558 xofiller!SHFILL1_RVT!x473960y653320
*9559 xofiller!SHFILL1_RVT!x475480y653320
*9560 xofiller!SHFILL1_RVT!x477000y653320
*9561 xofiller!SHFILL1_RVT!x478520y653320
*9562 xofiller!SHFILL1_RVT!x480040y653320
*9563 xofiller!SHFILL1_RVT!x481560y653320
*9564 xofiller!SHFILL1_RVT!x483080y653320
*9565 xofiller!SHFILL1_RVT!x484600y653320
*9566 xofiller!SHFILL1_RVT!x486120y653320
*9567 xofiller!SHFILL1_RVT!x487640y653320
*9568 xofiller!SHFILL1_RVT!x489160y653320
*9569 xofiller!SHFILL1_RVT!x490680y653320
*9570 xofiller!SHFILL1_RVT!x492200y653320
*9571 xofiller!SHFILL1_RVT!x493720y653320
*9572 xofiller!SHFILL1_RVT!x495240y653320
*9573 xofiller!SHFILL1_RVT!x496760y653320
*9574 xofiller!SHFILL1_RVT!x498280y653320
*9575 xofiller!SHFILL1_RVT!x499800y653320
*9576 xofiller!SHFILL1_RVT!x501320y653320
*9577 xofiller!SHFILL1_RVT!x502840y653320
*9578 xofiller!SHFILL1_RVT!x504360y653320
*9579 xofiller!SHFILL1_RVT!x505880y653320
*9580 xofiller!SHFILL1_RVT!x507400y653320
*9581 xofiller!SHFILL1_RVT!x508920y653320
*9582 xofiller!SHFILL1_RVT!x510440y653320
*9583 xofiller!SHFILL1_RVT!x511960y653320
*9584 xofiller!SHFILL1_RVT!x513480y653320
*9585 xofiller!SHFILL1_RVT!x515000y653320
*9586 xofiller!SHFILL1_RVT!x516520y653320
*9587 xofiller!SHFILL1_RVT!x518040y653320
*9588 xofiller!SHFILL1_RVT!x519560y653320
*9589 xofiller!SHFILL1_RVT!x521080y653320
*9590 xofiller!SHFILL1_RVT!x522600y653320
*9591 xofiller!SHFILL1_RVT!x524120y653320
*9592 xofiller!SHFILL1_RVT!x525640y653320
*9593 xofiller!SHFILL1_RVT!x527160y653320
*9594 xofiller!SHFILL1_RVT!x528680y653320
*9595 xofiller!SHFILL1_RVT!x530200y653320
*9596 xofiller!SHFILL1_RVT!x531720y653320
*9597 xofiller!SHFILL1_RVT!x533240y653320
*9598 xofiller!SHFILL1_RVT!x534760y653320
*9599 xofiller!SHFILL1_RVT!x536280y653320
*9600 xofiller!SHFILL1_RVT!x537800y653320
*9601 xofiller!SHFILL1_RVT!x539320y653320
*9602 xofiller!SHFILL1_RVT!x540840y653320
*9603 xofiller!SHFILL1_RVT!x542360y653320
*9604 xofiller!SHFILL1_RVT!x543880y653320
*9605 xofiller!SHFILL1_RVT!x545400y653320
*9606 xofiller!SHFILL1_RVT!x546920y653320
*9607 xofiller!SHFILL1_RVT!x548440y653320
*9608 xofiller!SHFILL1_RVT!x549960y653320
*9609 xofiller!SHFILL1_RVT!x551480y653320
*9610 xofiller!SHFILL1_RVT!x553000y653320
*9611 xofiller!SHFILL1_RVT!x554520y653320
*9612 xofiller!SHFILL1_RVT!x556040y653320
*9613 xofiller!SHFILL1_RVT!x557560y653320
*9614 xofiller!SHFILL1_RVT!x559080y653320
*9615 xofiller!SHFILL1_RVT!x560600y653320
*9616 xofiller!SHFILL1_RVT!x562120y653320
*9617 xofiller!SHFILL1_RVT!x563640y653320
*9618 xofiller!SHFILL1_RVT!x565160y653320
*9619 xofiller!SHFILL1_RVT!x566680y653320
*9620 xofiller!SHFILL1_RVT!x568200y653320
*9621 xofiller!SHFILL1_RVT!x569720y653320
*9622 xofiller!SHFILL1_RVT!x571240y653320
*9623 xofiller!SHFILL1_RVT!x572760y653320
*9624 xofiller!SHFILL1_RVT!x574280y653320
*9625 xofiller!SHFILL1_RVT!x575800y653320
*9626 xofiller!SHFILL1_RVT!x577320y653320
*9627 xofiller!SHFILL1_RVT!x578840y653320
*9628 xofiller!SHFILL1_RVT!x580360y653320
*9629 xofiller!SHFILL1_RVT!x581880y653320
*9630 xofiller!SHFILL1_RVT!x583400y653320
*9631 xofiller!SHFILL1_RVT!x584920y653320
*9632 xofiller!SHFILL1_RVT!x586440y653320
*9633 xofiller!SHFILL1_RVT!x587960y653320
*9634 xofiller!SHFILL1_RVT!x589480y653320
*9635 xofiller!SHFILL1_RVT!x591000y653320
*9636 xofiller!SHFILL1_RVT!x592520y653320
*9637 xofiller!SHFILL1_RVT!x594040y653320
*9638 xofiller!SHFILL1_RVT!x595560y653320
*9639 xofiller!SHFILL1_RVT!x597080y653320
*9640 xofiller!SHFILL1_RVT!x598600y653320
*9641 xofiller!SHFILL1_RVT!x600120y653320
*9642 xofiller!SHFILL1_RVT!x601640y653320
*9643 xofiller!SHFILL1_RVT!x603160y653320
*9644 xofiller!SHFILL1_RVT!x604680y653320
*9645 xofiller!SHFILL1_RVT!x606200y653320
*9646 xofiller!SHFILL1_RVT!x607720y653320
*9647 xofiller!SHFILL1_RVT!x609240y653320
*9648 xofiller!SHFILL1_RVT!x610760y653320
*9649 xofiller!SHFILL1_RVT!x612280y653320
*9650 xofiller!SHFILL1_RVT!x613800y653320
*9651 xofiller!SHFILL1_RVT!x615320y653320
*9652 xofiller!SHFILL1_RVT!x616840y653320
*9653 xofiller!SHFILL1_RVT!x618360y653320
*9654 xofiller!SHFILL1_RVT!x619880y653320
*9655 xofiller!SHFILL1_RVT!x621400y653320
*9656 xofiller!SHFILL1_RVT!x622920y653320
*9657 xofiller!SHFILL1_RVT!x624440y653320
*9658 xofiller!SHFILL1_RVT!x625960y653320
*9659 xofiller!SHFILL1_RVT!x627480y653320
*9660 xofiller!SHFILL1_RVT!x629000y653320
*9661 xofiller!SHFILL1_RVT!x630520y653320
*9662 xofiller!SHFILL1_RVT!x632040y653320
*9663 xofiller!SHFILL1_RVT!x633560y653320
*9664 xofiller!SHFILL1_RVT!x635080y653320
*9665 xofiller!SHFILL1_RVT!x636600y653320
*9666 xofiller!SHFILL1_RVT!x638120y653320
*9667 xofiller!SHFILL1_RVT!x639640y653320
*9668 xofiller!SHFILL1_RVT!x641160y653320
*9669 xofiller!SHFILL1_RVT!x642680y653320
*9670 xofiller!SHFILL1_RVT!x644200y653320
*9671 xofiller!SHFILL1_RVT!x645720y653320
*9672 xofiller!SHFILL1_RVT!x647240y653320
*9673 xofiller!SHFILL1_RVT!x648760y653320
*9674 xofiller!SHFILL1_RVT!x650280y653320
*9675 xofiller!SHFILL1_RVT!x651800y653320
*9676 xofiller!SHFILL1_RVT!x653320y653320
*9677 xofiller!SHFILL1_RVT!x654840y653320
*9678 xofiller!SHFILL1_RVT!x656360y653320
*9679 xofiller!SHFILL1_RVT!x657880y653320
*9680 xofiller!SHFILL1_RVT!x659400y653320
*9681 xofiller!SHFILL1_RVT!x660920y653320
*9682 xofiller!SHFILL1_RVT!x662440y653320
*9683 xofiller!SHFILL1_RVT!x663960y653320
*9684 xofiller!SHFILL1_RVT!x665480y653320
*9685 xofiller!SHFILL1_RVT!x667000y653320
*9686 xofiller!SHFILL1_RVT!x668520y653320
*9687 xofiller!SHFILL1_RVT!x670040y653320
*9688 xofiller!SHFILL1_RVT!x671560y653320
*9689 xofiller!SHFILL1_RVT!x673080y653320
*9690 xofiller!SHFILL1_RVT!x674600y653320
*9691 xofiller!SHFILL1_RVT!x676120y653320
*9692 xofiller!SHFILL1_RVT!x677640y653320
*9693 xofiller!SHFILL1_RVT!x679160y653320
*9694 xofiller!SHFILL1_RVT!x680680y653320
*9695 xofiller!SHFILL1_RVT!x682200y653320
*9696 xofiller!SHFILL1_RVT!x683720y653320
*9697 xofiller!SHFILL1_RVT!x685240y653320
*9698 xofiller!SHFILL1_RVT!x686760y653320
*9699 xofiller!SHFILL1_RVT!x688280y653320
*9700 xofiller!SHFILL1_RVT!x689800y653320
*9701 xofiller!SHFILL1_RVT!x691320y653320
*9702 xofiller!SHFILL1_RVT!x692840y653320
*9703 xofiller!SHFILL1_RVT!x694360y653320
*9704 xofiller!SHFILL1_RVT!x695880y653320
*9705 xofiller!SHFILL1_RVT!x697400y653320
*9706 xofiller!SHFILL1_RVT!x698920y653320
*9707 xofiller!SHFILL1_RVT!x700440y653320
*9708 xofiller!SHFILL1_RVT!x701960y653320
*9709 xofiller!SHFILL1_RVT!x703480y653320
*9710 xofiller!SHFILL1_RVT!x705000y653320
*9711 xofiller!SHFILL1_RVT!x706520y653320
*9712 xofiller!SHFILL1_RVT!x708040y653320
*9713 xofiller!SHFILL1_RVT!x709560y653320
*9714 xofiller!SHFILL1_RVT!x711080y653320
*9715 xofiller!SHFILL1_RVT!x712600y653320
*9716 xofiller!SHFILL1_RVT!x714120y653320
*9717 xofiller!SHFILL1_RVT!x715640y653320
*9718 xofiller!SHFILL1_RVT!x717160y653320
*9719 xofiller!SHFILL1_RVT!x727800y653320
*9720 xofiller!SHFILL1_RVT!x729320y653320
*9721 xofiller!SHFILL1_RVT!x730840y653320
*9722 xofiller!SHFILL1_RVT!x732360y653320
*9723 xofiller!SHFILL1_RVT!x733880y653320
*9724 xofiller!SHFILL1_RVT!x735400y653320
*9725 xofiller!SHFILL1_RVT!x736920y653320
*9726 xofiller!SHFILL1_RVT!x738440y653320
*9727 xofiller!SHFILL1_RVT!x739960y653320
*9728 xofiller!SHFILL1_RVT!x741480y653320
*9729 xofiller!SHFILL1_RVT!x743000y653320
*9730 xofiller!SHFILL1_RVT!x744520y653320
*9731 xofiller!SHFILL1_RVT!x135000y670040
*9732 xofiller!SHFILL1_RVT!x136520y670040
*9733 xofiller!SHFILL1_RVT!x138040y670040
*9734 xofiller!SHFILL1_RVT!x139560y670040
*9735 xofiller!SHFILL1_RVT!x141080y670040
*9736 xofiller!SHFILL1_RVT!x142600y670040
*9737 xofiller!SHFILL1_RVT!x144120y670040
*9738 xofiller!SHFILL1_RVT!x145640y670040
*9739 xofiller!SHFILL1_RVT!x147160y670040
*9740 xofiller!SHFILL1_RVT!x148680y670040
*9741 xofiller!SHFILL1_RVT!x150200y670040
*9742 xofiller!SHFILL1_RVT!x151720y670040
*9743 xofiller!SHFILL1_RVT!x153240y670040
*9744 xofiller!SHFILL1_RVT!x154760y670040
*9745 xofiller!SHFILL1_RVT!x156280y670040
*9746 xofiller!SHFILL1_RVT!x157800y670040
*9747 xofiller!SHFILL1_RVT!x159320y670040
*9748 xofiller!SHFILL1_RVT!x160840y670040
*9749 xofiller!SHFILL1_RVT!x162360y670040
*9750 xofiller!SHFILL1_RVT!x163880y670040
*9751 xofiller!SHFILL1_RVT!x165400y670040
*9752 xofiller!SHFILL1_RVT!x166920y670040
*9753 xofiller!SHFILL1_RVT!x168440y670040
*9754 xofiller!SHFILL1_RVT!x169960y670040
*9755 xofiller!SHFILL1_RVT!x171480y670040
*9756 xofiller!SHFILL1_RVT!x173000y670040
*9757 xofiller!SHFILL1_RVT!x174520y670040
*9758 xofiller!SHFILL1_RVT!x176040y670040
*9759 xofiller!SHFILL1_RVT!x177560y670040
*9760 xofiller!SHFILL1_RVT!x179080y670040
*9761 xofiller!SHFILL1_RVT!x180600y670040
*9762 xofiller!SHFILL1_RVT!x182120y670040
*9763 xofiller!SHFILL1_RVT!x183640y670040
*9764 xofiller!SHFILL1_RVT!x185160y670040
*9765 xofiller!SHFILL1_RVT!x186680y670040
*9766 xofiller!SHFILL1_RVT!x188200y670040
*9767 xofiller!SHFILL1_RVT!x189720y670040
*9768 xofiller!SHFILL1_RVT!x191240y670040
*9769 xofiller!SHFILL1_RVT!x192760y670040
*9770 xofiller!SHFILL1_RVT!x194280y670040
*9771 xofiller!SHFILL1_RVT!x195800y670040
*9772 xofiller!SHFILL1_RVT!x197320y670040
*9773 xofiller!SHFILL1_RVT!x198840y670040
*9774 xofiller!SHFILL1_RVT!x200360y670040
*9775 xofiller!SHFILL1_RVT!x201880y670040
*9776 xofiller!SHFILL1_RVT!x203400y670040
*9777 xofiller!SHFILL1_RVT!x204920y670040
*9778 xofiller!SHFILL1_RVT!x206440y670040
*9779 xofiller!SHFILL1_RVT!x207960y670040
*9780 xofiller!SHFILL1_RVT!x209480y670040
*9781 xofiller!SHFILL1_RVT!x211000y670040
*9782 xofiller!SHFILL1_RVT!x212520y670040
*9783 xofiller!SHFILL1_RVT!x214040y670040
*9784 xofiller!SHFILL1_RVT!x215560y670040
*9785 xofiller!SHFILL1_RVT!x232280y670040
*9786 xofiller!SHFILL1_RVT!x233800y670040
*9787 xofiller!SHFILL1_RVT!x235320y670040
*9788 xofiller!SHFILL1_RVT!x236840y670040
*9789 xofiller!SHFILL1_RVT!x238360y670040
*9790 xofiller!SHFILL1_RVT!x239880y670040
*9791 xofiller!SHFILL1_RVT!x241400y670040
*9792 xofiller!SHFILL1_RVT!x242920y670040
*9793 xofiller!SHFILL1_RVT!x244440y670040
*9794 xofiller!SHFILL1_RVT!x245960y670040
*9795 xofiller!SHFILL1_RVT!x247480y670040
*9796 xofiller!SHFILL1_RVT!x249000y670040
*9797 xofiller!SHFILL1_RVT!x250520y670040
*9798 xofiller!SHFILL1_RVT!x252040y670040
*9799 xofiller!SHFILL1_RVT!x253560y670040
*9800 xofiller!SHFILL1_RVT!x255080y670040
*9801 xofiller!SHFILL1_RVT!x256600y670040
*9802 xofiller!SHFILL1_RVT!x258120y670040
*9803 xofiller!SHFILL1_RVT!x259640y670040
*9804 xofiller!SHFILL1_RVT!x261160y670040
*9805 xofiller!SHFILL1_RVT!x262680y670040
*9806 xofiller!SHFILL1_RVT!x264200y670040
*9807 xofiller!SHFILL1_RVT!x265720y670040
*9808 xofiller!SHFILL1_RVT!x267240y670040
*9809 xofiller!SHFILL1_RVT!x268760y670040
*9810 xofiller!SHFILL1_RVT!x270280y670040
*9811 xofiller!SHFILL1_RVT!x271800y670040
*9812 xofiller!SHFILL1_RVT!x273320y670040
*9813 xofiller!SHFILL1_RVT!x274840y670040
*9814 xofiller!SHFILL1_RVT!x276360y670040
*9815 xofiller!SHFILL1_RVT!x277880y670040
*9816 xofiller!SHFILL1_RVT!x279400y670040
*9817 xofiller!SHFILL1_RVT!x280920y670040
*9818 xofiller!SHFILL1_RVT!x282440y670040
*9819 xofiller!SHFILL1_RVT!x283960y670040
*9820 xofiller!SHFILL1_RVT!x285480y670040
*9821 xofiller!SHFILL1_RVT!x287000y670040
*9822 xofiller!SHFILL1_RVT!x288520y670040
*9823 xofiller!SHFILL1_RVT!x290040y670040
*9824 xofiller!SHFILL1_RVT!x291560y670040
*9825 xofiller!SHFILL1_RVT!x293080y670040
*9826 xofiller!SHFILL1_RVT!x294600y670040
*9827 xofiller!SHFILL1_RVT!x296120y670040
*9828 xofiller!SHFILL1_RVT!x297640y670040
*9829 xofiller!SHFILL1_RVT!x299160y670040
*9830 xofiller!SHFILL1_RVT!x300680y670040
*9831 xofiller!SHFILL1_RVT!x302200y670040
*9832 xofiller!SHFILL1_RVT!x303720y670040
*9833 xofiller!SHFILL1_RVT!x305240y670040
*9834 xofiller!SHFILL1_RVT!x306760y670040
*9835 xofiller!SHFILL1_RVT!x308280y670040
*9836 xofiller!SHFILL1_RVT!x309800y670040
*9837 xofiller!SHFILL1_RVT!x311320y670040
*9838 xofiller!SHFILL1_RVT!x312840y670040
*9839 xofiller!SHFILL1_RVT!x314360y670040
*9840 xofiller!SHFILL1_RVT!x315880y670040
*9841 xofiller!SHFILL1_RVT!x317400y670040
*9842 xofiller!SHFILL1_RVT!x318920y670040
*9843 xofiller!SHFILL1_RVT!x320440y670040
*9844 xofiller!SHFILL1_RVT!x321960y670040
*9845 xofiller!SHFILL1_RVT!x323480y670040
*9846 xofiller!SHFILL1_RVT!x325000y670040
*9847 xofiller!SHFILL1_RVT!x326520y670040
*9848 xofiller!SHFILL1_RVT!x328040y670040
*9849 xofiller!SHFILL1_RVT!x329560y670040
*9850 xofiller!SHFILL1_RVT!x331080y670040
*9851 xofiller!SHFILL1_RVT!x332600y670040
*9852 xofiller!SHFILL1_RVT!x334120y670040
*9853 xofiller!SHFILL1_RVT!x335640y670040
*9854 xofiller!SHFILL1_RVT!x337160y670040
*9855 xofiller!SHFILL1_RVT!x338680y670040
*9856 xofiller!SHFILL1_RVT!x340200y670040
*9857 xofiller!SHFILL1_RVT!x341720y670040
*9858 xofiller!SHFILL1_RVT!x343240y670040
*9859 xofiller!SHFILL1_RVT!x344760y670040
*9860 xofiller!SHFILL1_RVT!x346280y670040
*9861 xofiller!SHFILL1_RVT!x347800y670040
*9862 xofiller!SHFILL1_RVT!x349320y670040
*9863 xofiller!SHFILL1_RVT!x350840y670040
*9864 xofiller!SHFILL1_RVT!x364520y670040
*9865 xofiller!SHFILL1_RVT!x366040y670040
*9866 xofiller!SHFILL1_RVT!x367560y670040
*9867 xofiller!SHFILL1_RVT!x369080y670040
*9868 xofiller!SHFILL1_RVT!x370600y670040
*9869 xofiller!SHFILL1_RVT!x372120y670040
*9870 xofiller!SHFILL1_RVT!x373640y670040
*9871 xofiller!SHFILL1_RVT!x375160y670040
*9872 xofiller!SHFILL1_RVT!x376680y670040
*9873 xofiller!SHFILL1_RVT!x378200y670040
*9874 xofiller!SHFILL1_RVT!x379720y670040
*9875 xofiller!SHFILL1_RVT!x381240y670040
*9876 xofiller!SHFILL1_RVT!x382760y670040
*9877 xofiller!SHFILL1_RVT!x384280y670040
*9878 xofiller!SHFILL1_RVT!x385800y670040
*9879 xofiller!SHFILL1_RVT!x387320y670040
*9880 xofiller!SHFILL1_RVT!x388840y670040
*9881 xofiller!SHFILL1_RVT!x390360y670040
*9882 xofiller!SHFILL1_RVT!x391880y670040
*9883 xofiller!SHFILL1_RVT!x393400y670040
*9884 xofiller!SHFILL1_RVT!x394920y670040
*9885 xofiller!SHFILL1_RVT!x396440y670040
*9886 xofiller!SHFILL1_RVT!x397960y670040
*9887 xofiller!SHFILL1_RVT!x399480y670040
*9888 xofiller!SHFILL1_RVT!x401000y670040
*9889 xofiller!SHFILL1_RVT!x402520y670040
*9890 xofiller!SHFILL1_RVT!x404040y670040
*9891 xofiller!SHFILL1_RVT!x405560y670040
*9892 xofiller!SHFILL1_RVT!x407080y670040
*9893 xofiller!SHFILL1_RVT!x408600y670040
*9894 xofiller!SHFILL1_RVT!x410120y670040
*9895 xofiller!SHFILL1_RVT!x411640y670040
*9896 xofiller!SHFILL1_RVT!x413160y670040
*9897 xofiller!SHFILL1_RVT!x414680y670040
*9898 xofiller!SHFILL1_RVT!x416200y670040
*9899 xofiller!SHFILL1_RVT!x417720y670040
*9900 xofiller!SHFILL1_RVT!x419240y670040
*9901 xofiller!SHFILL1_RVT!x420760y670040
*9902 xofiller!SHFILL1_RVT!x422280y670040
*9903 xofiller!SHFILL1_RVT!x423800y670040
*9904 xofiller!SHFILL1_RVT!x425320y670040
*9905 xofiller!SHFILL1_RVT!x426840y670040
*9906 xofiller!SHFILL1_RVT!x428360y670040
*9907 xofiller!SHFILL1_RVT!x429880y670040
*9908 xofiller!SHFILL1_RVT!x431400y670040
*9909 xofiller!SHFILL1_RVT!x432920y670040
*9910 xofiller!SHFILL1_RVT!x434440y670040
*9911 xofiller!SHFILL1_RVT!x435960y670040
*9912 xofiller!SHFILL1_RVT!x437480y670040
*9913 xofiller!SHFILL1_RVT!x439000y670040
*9914 xofiller!SHFILL1_RVT!x440520y670040
*9915 xofiller!SHFILL1_RVT!x442040y670040
*9916 xofiller!SHFILL1_RVT!x443560y670040
*9917 xofiller!SHFILL1_RVT!x445080y670040
*9918 xofiller!SHFILL1_RVT!x446600y670040
*9919 xofiller!SHFILL1_RVT!x448120y670040
*9920 xofiller!SHFILL1_RVT!x449640y670040
*9921 xofiller!SHFILL1_RVT!x451160y670040
*9922 xofiller!SHFILL1_RVT!x452680y670040
*9923 xofiller!SHFILL1_RVT!x454200y670040
*9924 xofiller!SHFILL1_RVT!x455720y670040
*9925 xofiller!SHFILL1_RVT!x457240y670040
*9926 xofiller!SHFILL1_RVT!x458760y670040
*9927 xofiller!SHFILL1_RVT!x460280y670040
*9928 xofiller!SHFILL1_RVT!x461800y670040
*9929 xofiller!SHFILL1_RVT!x463320y670040
*9930 xofiller!SHFILL1_RVT!x464840y670040
*9931 xofiller!SHFILL1_RVT!x466360y670040
*9932 xofiller!SHFILL1_RVT!x467880y670040
*9933 xofiller!SHFILL1_RVT!x469400y670040
*9934 xofiller!SHFILL1_RVT!x470920y670040
*9935 xofiller!SHFILL1_RVT!x472440y670040
*9936 xofiller!SHFILL1_RVT!x473960y670040
*9937 xofiller!SHFILL1_RVT!x475480y670040
*9938 xofiller!SHFILL1_RVT!x477000y670040
*9939 xofiller!SHFILL1_RVT!x478520y670040
*9940 xofiller!SHFILL1_RVT!x480040y670040
*9941 xofiller!SHFILL1_RVT!x481560y670040
*9942 xofiller!SHFILL1_RVT!x483080y670040
*9943 xofiller!SHFILL1_RVT!x484600y670040
*9944 xofiller!SHFILL1_RVT!x486120y670040
*9945 xofiller!SHFILL1_RVT!x487640y670040
*9946 xofiller!SHFILL1_RVT!x489160y670040
*9947 xofiller!SHFILL1_RVT!x490680y670040
*9948 xofiller!SHFILL1_RVT!x492200y670040
*9949 xofiller!SHFILL1_RVT!x493720y670040
*9950 xofiller!SHFILL1_RVT!x495240y670040
*9951 xofiller!SHFILL1_RVT!x496760y670040
*9952 xofiller!SHFILL1_RVT!x498280y670040
*9953 xofiller!SHFILL1_RVT!x499800y670040
*9954 xofiller!SHFILL1_RVT!x501320y670040
*9955 xofiller!SHFILL1_RVT!x502840y670040
*9956 xofiller!SHFILL1_RVT!x504360y670040
*9957 xofiller!SHFILL1_RVT!x505880y670040
*9958 xofiller!SHFILL1_RVT!x507400y670040
*9959 xofiller!SHFILL1_RVT!x508920y670040
*9960 xofiller!SHFILL1_RVT!x510440y670040
*9961 xofiller!SHFILL1_RVT!x511960y670040
*9962 xofiller!SHFILL1_RVT!x513480y670040
*9963 xofiller!SHFILL1_RVT!x515000y670040
*9964 xofiller!SHFILL1_RVT!x516520y670040
*9965 xofiller!SHFILL1_RVT!x518040y670040
*9966 xofiller!SHFILL1_RVT!x519560y670040
*9967 xofiller!SHFILL1_RVT!x521080y670040
*9968 xofiller!SHFILL1_RVT!x522600y670040
*9969 xofiller!SHFILL1_RVT!x524120y670040
*9970 xofiller!SHFILL1_RVT!x525640y670040
*9971 xofiller!SHFILL1_RVT!x527160y670040
*9972 xofiller!SHFILL1_RVT!x528680y670040
*9973 xofiller!SHFILL1_RVT!x530200y670040
*9974 xofiller!SHFILL1_RVT!x531720y670040
*9975 xofiller!SHFILL1_RVT!x533240y670040
*9976 xofiller!SHFILL1_RVT!x534760y670040
*9977 xofiller!SHFILL1_RVT!x536280y670040
*9978 xofiller!SHFILL1_RVT!x537800y670040
*9979 xofiller!SHFILL1_RVT!x539320y670040
*9980 xofiller!SHFILL1_RVT!x540840y670040
*9981 xofiller!SHFILL1_RVT!x542360y670040
*9982 xofiller!SHFILL1_RVT!x543880y670040
*9983 xofiller!SHFILL1_RVT!x545400y670040
*9984 xofiller!SHFILL1_RVT!x546920y670040
*9985 xofiller!SHFILL1_RVT!x548440y670040
*9986 xofiller!SHFILL1_RVT!x549960y670040
*9987 xofiller!SHFILL1_RVT!x551480y670040
*9988 xofiller!SHFILL1_RVT!x553000y670040
*9989 xofiller!SHFILL1_RVT!x554520y670040
*9990 xofiller!SHFILL1_RVT!x556040y670040
*9991 xofiller!SHFILL1_RVT!x557560y670040
*9992 xofiller!SHFILL1_RVT!x559080y670040
*9993 xofiller!SHFILL1_RVT!x560600y670040
*9994 xofiller!SHFILL1_RVT!x562120y670040
*9995 xofiller!SHFILL1_RVT!x563640y670040
*9996 xofiller!SHFILL1_RVT!x565160y670040
*9997 xofiller!SHFILL1_RVT!x566680y670040
*9998 xofiller!SHFILL1_RVT!x568200y670040
*9999 xofiller!SHFILL1_RVT!x569720y670040
*10000 xofiller!SHFILL1_RVT!x571240y670040
*10001 xofiller!SHFILL1_RVT!x572760y670040
*10002 xofiller!SHFILL1_RVT!x574280y670040
*10003 xofiller!SHFILL1_RVT!x575800y670040
*10004 xofiller!SHFILL1_RVT!x577320y670040
*10005 xofiller!SHFILL1_RVT!x578840y670040
*10006 xofiller!SHFILL1_RVT!x580360y670040
*10007 xofiller!SHFILL1_RVT!x581880y670040
*10008 xofiller!SHFILL1_RVT!x583400y670040
*10009 xofiller!SHFILL1_RVT!x584920y670040
*10010 xofiller!SHFILL1_RVT!x586440y670040
*10011 xofiller!SHFILL1_RVT!x587960y670040
*10012 xofiller!SHFILL1_RVT!x589480y670040
*10013 xofiller!SHFILL1_RVT!x591000y670040
*10014 xofiller!SHFILL1_RVT!x592520y670040
*10015 xofiller!SHFILL1_RVT!x594040y670040
*10016 xofiller!SHFILL1_RVT!x595560y670040
*10017 xofiller!SHFILL1_RVT!x597080y670040
*10018 xofiller!SHFILL1_RVT!x598600y670040
*10019 xofiller!SHFILL1_RVT!x600120y670040
*10020 xofiller!SHFILL1_RVT!x601640y670040
*10021 xofiller!SHFILL1_RVT!x603160y670040
*10022 xofiller!SHFILL1_RVT!x604680y670040
*10023 xofiller!SHFILL1_RVT!x606200y670040
*10024 xofiller!SHFILL1_RVT!x607720y670040
*10025 xofiller!SHFILL1_RVT!x609240y670040
*10026 xofiller!SHFILL1_RVT!x610760y670040
*10027 xofiller!SHFILL1_RVT!x612280y670040
*10028 xofiller!SHFILL1_RVT!x613800y670040
*10029 xofiller!SHFILL1_RVT!x615320y670040
*10030 xofiller!SHFILL1_RVT!x616840y670040
*10031 xofiller!SHFILL1_RVT!x618360y670040
*10032 xofiller!SHFILL1_RVT!x619880y670040
*10033 xofiller!SHFILL1_RVT!x621400y670040
*10034 xofiller!SHFILL1_RVT!x622920y670040
*10035 xofiller!SHFILL1_RVT!x624440y670040
*10036 xofiller!SHFILL1_RVT!x625960y670040
*10037 xofiller!SHFILL1_RVT!x627480y670040
*10038 xofiller!SHFILL1_RVT!x629000y670040
*10039 xofiller!SHFILL1_RVT!x630520y670040
*10040 xofiller!SHFILL1_RVT!x632040y670040
*10041 xofiller!SHFILL1_RVT!x633560y670040
*10042 xofiller!SHFILL1_RVT!x635080y670040
*10043 xofiller!SHFILL1_RVT!x662440y670040
*10044 xofiller!SHFILL1_RVT!x663960y670040
*10045 xofiller!SHFILL1_RVT!x665480y670040
*10046 xofiller!SHFILL1_RVT!x667000y670040
*10047 xofiller!SHFILL1_RVT!x668520y670040
*10048 xofiller!SHFILL1_RVT!x670040y670040
*10049 xofiller!SHFILL1_RVT!x671560y670040
*10050 xofiller!SHFILL1_RVT!x673080y670040
*10051 xofiller!SHFILL1_RVT!x674600y670040
*10052 xofiller!SHFILL1_RVT!x676120y670040
*10053 xofiller!SHFILL1_RVT!x677640y670040
*10054 xofiller!SHFILL1_RVT!x679160y670040
*10055 xofiller!SHFILL1_RVT!x680680y670040
*10056 xofiller!SHFILL1_RVT!x682200y670040
*10057 xofiller!SHFILL1_RVT!x683720y670040
*10058 xofiller!SHFILL1_RVT!x685240y670040
*10059 xofiller!SHFILL1_RVT!x686760y670040
*10060 xofiller!SHFILL1_RVT!x688280y670040
*10061 xofiller!SHFILL1_RVT!x689800y670040
*10062 xofiller!SHFILL1_RVT!x691320y670040
*10063 xofiller!SHFILL1_RVT!x692840y670040
*10064 xofiller!SHFILL1_RVT!x694360y670040
*10065 xofiller!SHFILL1_RVT!x695880y670040
*10066 xofiller!SHFILL1_RVT!x697400y670040
*10067 xofiller!SHFILL1_RVT!x698920y670040
*10068 xofiller!SHFILL1_RVT!x700440y670040
*10069 xofiller!SHFILL1_RVT!x701960y670040
*10070 xofiller!SHFILL1_RVT!x703480y670040
*10071 xofiller!SHFILL1_RVT!x705000y670040
*10072 xofiller!SHFILL1_RVT!x706520y670040
*10073 xofiller!SHFILL1_RVT!x708040y670040
*10074 xofiller!SHFILL1_RVT!x709560y670040
*10075 xofiller!SHFILL1_RVT!x711080y670040
*10076 xofiller!SHFILL1_RVT!x712600y670040
*10077 xofiller!SHFILL1_RVT!x714120y670040
*10078 xofiller!SHFILL1_RVT!x715640y670040
*10079 xofiller!SHFILL1_RVT!x717160y670040
*10080 xofiller!SHFILL1_RVT!x718680y670040
*10081 xofiller!SHFILL1_RVT!x720200y670040
*10082 xofiller!SHFILL1_RVT!x721720y670040
*10083 xofiller!SHFILL1_RVT!x723240y670040
*10084 xofiller!SHFILL1_RVT!x724760y670040
*10085 xofiller!SHFILL1_RVT!x726280y670040
*10086 xofiller!SHFILL1_RVT!x727800y670040
*10087 xofiller!SHFILL1_RVT!x729320y670040
*10088 xofiller!SHFILL1_RVT!x730840y670040
*10089 xofiller!SHFILL1_RVT!x732360y670040
*10090 xofiller!SHFILL1_RVT!x733880y670040
*10091 xofiller!SHFILL1_RVT!x735400y670040
*10092 xofiller!SHFILL1_RVT!x736920y670040
*10093 xofiller!SHFILL1_RVT!x738440y670040
*10094 xofiller!SHFILL1_RVT!x739960y670040
*10095 xofiller!SHFILL1_RVT!x741480y670040
*10096 xofiller!SHFILL1_RVT!x743000y670040
*10097 xofiller!SHFILL1_RVT!x744520y670040
*10098 xofiller!SHFILL1_RVT!x135000y686760
*10099 xofiller!SHFILL1_RVT!x136520y686760
*10100 xofiller!SHFILL1_RVT!x138040y686760
*10101 xofiller!SHFILL1_RVT!x139560y686760
*10102 xofiller!SHFILL1_RVT!x141080y686760
*10103 xofiller!SHFILL1_RVT!x142600y686760
*10104 xofiller!SHFILL1_RVT!x144120y686760
*10105 xofiller!SHFILL1_RVT!x145640y686760
*10106 xofiller!SHFILL1_RVT!x147160y686760
*10107 xofiller!SHFILL1_RVT!x148680y686760
*10108 xofiller!SHFILL1_RVT!x150200y686760
*10109 xofiller!SHFILL1_RVT!x151720y686760
*10110 xofiller!SHFILL1_RVT!x153240y686760
*10111 xofiller!SHFILL1_RVT!x154760y686760
*10112 xofiller!SHFILL1_RVT!x156280y686760
*10113 xofiller!SHFILL1_RVT!x157800y686760
*10114 xofiller!SHFILL1_RVT!x159320y686760
*10115 xofiller!SHFILL1_RVT!x160840y686760
*10116 xofiller!SHFILL1_RVT!x162360y686760
*10117 xofiller!SHFILL1_RVT!x176040y686760
*10118 xofiller!SHFILL1_RVT!x177560y686760
*10119 xofiller!SHFILL1_RVT!x179080y686760
*10120 xofiller!SHFILL1_RVT!x180600y686760
*10121 xofiller!SHFILL1_RVT!x182120y686760
*10122 xofiller!SHFILL1_RVT!x183640y686760
*10123 xofiller!SHFILL1_RVT!x185160y686760
*10124 xofiller!SHFILL1_RVT!x186680y686760
*10125 xofiller!SHFILL1_RVT!x188200y686760
*10126 xofiller!SHFILL1_RVT!x189720y686760
*10127 xofiller!SHFILL1_RVT!x191240y686760
*10128 xofiller!SHFILL1_RVT!x192760y686760
*10129 xofiller!SHFILL1_RVT!x194280y686760
*10130 xofiller!SHFILL1_RVT!x195800y686760
*10131 xofiller!SHFILL1_RVT!x197320y686760
*10132 xofiller!SHFILL1_RVT!x198840y686760
*10133 xofiller!SHFILL1_RVT!x200360y686760
*10134 xofiller!SHFILL1_RVT!x201880y686760
*10135 xofiller!SHFILL1_RVT!x203400y686760
*10136 xofiller!SHFILL1_RVT!x204920y686760
*10137 xofiller!SHFILL1_RVT!x206440y686760
*10138 xofiller!SHFILL1_RVT!x207960y686760
*10139 xofiller!SHFILL1_RVT!x209480y686760
*10140 xofiller!SHFILL1_RVT!x211000y686760
*10141 xofiller!SHFILL1_RVT!x212520y686760
*10142 xofiller!SHFILL1_RVT!x214040y686760
*10143 xofiller!SHFILL1_RVT!x215560y686760
*10144 xofiller!SHFILL1_RVT!x217080y686760
*10145 xofiller!SHFILL1_RVT!x218600y686760
*10146 xofiller!SHFILL1_RVT!x220120y686760
*10147 xofiller!SHFILL1_RVT!x221640y686760
*10148 xofiller!SHFILL1_RVT!x223160y686760
*10149 xofiller!SHFILL1_RVT!x255080y686760
*10150 xofiller!SHFILL1_RVT!x256600y686760
*10151 xofiller!SHFILL1_RVT!x258120y686760
*10152 xofiller!SHFILL1_RVT!x259640y686760
*10153 xofiller!SHFILL1_RVT!x261160y686760
*10154 xofiller!SHFILL1_RVT!x262680y686760
*10155 xofiller!SHFILL1_RVT!x264200y686760
*10156 xofiller!SHFILL1_RVT!x265720y686760
*10157 xofiller!SHFILL1_RVT!x267240y686760
*10158 xofiller!SHFILL1_RVT!x268760y686760
*10159 xofiller!SHFILL1_RVT!x270280y686760
*10160 xofiller!SHFILL1_RVT!x271800y686760
*10161 xofiller!SHFILL1_RVT!x273320y686760
*10162 xofiller!SHFILL1_RVT!x274840y686760
*10163 xofiller!SHFILL1_RVT!x276360y686760
*10164 xofiller!SHFILL1_RVT!x277880y686760
*10165 xofiller!SHFILL1_RVT!x279400y686760
*10166 xofiller!SHFILL1_RVT!x280920y686760
*10167 xofiller!SHFILL1_RVT!x282440y686760
*10168 xofiller!SHFILL1_RVT!x283960y686760
*10169 xofiller!SHFILL1_RVT!x285480y686760
*10170 xofiller!SHFILL1_RVT!x287000y686760
*10171 xofiller!SHFILL1_RVT!x288520y686760
*10172 xofiller!SHFILL1_RVT!x290040y686760
*10173 xofiller!SHFILL1_RVT!x291560y686760
*10174 xofiller!SHFILL1_RVT!x293080y686760
*10175 xofiller!SHFILL1_RVT!x294600y686760
*10176 xofiller!SHFILL1_RVT!x308280y686760
*10177 xofiller!SHFILL1_RVT!x309800y686760
*10178 xofiller!SHFILL1_RVT!x311320y686760
*10179 xofiller!SHFILL1_RVT!x312840y686760
*10180 xofiller!SHFILL1_RVT!x314360y686760
*10181 xofiller!SHFILL1_RVT!x315880y686760
*10182 xofiller!SHFILL1_RVT!x317400y686760
*10183 xofiller!SHFILL1_RVT!x318920y686760
*10184 xofiller!SHFILL1_RVT!x320440y686760
*10185 xofiller!SHFILL1_RVT!x321960y686760
*10186 xofiller!SHFILL1_RVT!x323480y686760
*10187 xofiller!SHFILL1_RVT!x325000y686760
*10188 xofiller!SHFILL1_RVT!x326520y686760
*10189 xofiller!SHFILL1_RVT!x328040y686760
*10190 xofiller!SHFILL1_RVT!x329560y686760
*10191 xofiller!SHFILL1_RVT!x331080y686760
*10192 xofiller!SHFILL1_RVT!x332600y686760
*10193 xofiller!SHFILL1_RVT!x334120y686760
*10194 xofiller!SHFILL1_RVT!x335640y686760
*10195 xofiller!SHFILL1_RVT!x337160y686760
*10196 xofiller!SHFILL1_RVT!x338680y686760
*10197 xofiller!SHFILL1_RVT!x340200y686760
*10198 xofiller!SHFILL1_RVT!x341720y686760
*10199 xofiller!SHFILL1_RVT!x343240y686760
*10200 xofiller!SHFILL1_RVT!x344760y686760
*10201 xofiller!SHFILL1_RVT!x346280y686760
*10202 xofiller!SHFILL1_RVT!x347800y686760
*10203 xofiller!SHFILL1_RVT!x349320y686760
*10204 xofiller!SHFILL1_RVT!x350840y686760
*10205 xofiller!SHFILL1_RVT!x352360y686760
*10206 xofiller!SHFILL1_RVT!x353880y686760
*10207 xofiller!SHFILL1_RVT!x355400y686760
*10208 xofiller!SHFILL1_RVT!x356920y686760
*10209 xofiller!SHFILL1_RVT!x358440y686760
*10210 xofiller!SHFILL1_RVT!x359960y686760
*10211 xofiller!SHFILL1_RVT!x361480y686760
*10212 xofiller!SHFILL1_RVT!x363000y686760
*10213 xofiller!SHFILL1_RVT!x364520y686760
*10214 xofiller!SHFILL1_RVT!x366040y686760
*10215 xofiller!SHFILL1_RVT!x367560y686760
*10216 xofiller!SHFILL1_RVT!x369080y686760
*10217 xofiller!SHFILL1_RVT!x370600y686760
*10218 xofiller!SHFILL1_RVT!x372120y686760
*10219 xofiller!SHFILL1_RVT!x373640y686760
*10220 xofiller!SHFILL1_RVT!x375160y686760
*10221 xofiller!SHFILL1_RVT!x376680y686760
*10222 xofiller!SHFILL1_RVT!x378200y686760
*10223 xofiller!SHFILL1_RVT!x379720y686760
*10224 xofiller!SHFILL1_RVT!x381240y686760
*10225 xofiller!SHFILL1_RVT!x382760y686760
*10226 xofiller!SHFILL1_RVT!x384280y686760
*10227 xofiller!SHFILL1_RVT!x385800y686760
*10228 xofiller!SHFILL1_RVT!x387320y686760
*10229 xofiller!SHFILL1_RVT!x388840y686760
*10230 xofiller!SHFILL1_RVT!x390360y686760
*10231 xofiller!SHFILL1_RVT!x391880y686760
*10232 xofiller!SHFILL1_RVT!x393400y686760
*10233 xofiller!SHFILL1_RVT!x394920y686760
*10234 xofiller!SHFILL1_RVT!x396440y686760
*10235 xofiller!SHFILL1_RVT!x397960y686760
*10236 xofiller!SHFILL1_RVT!x399480y686760
*10237 xofiller!SHFILL1_RVT!x401000y686760
*10238 xofiller!SHFILL1_RVT!x402520y686760
*10239 xofiller!SHFILL1_RVT!x404040y686760
*10240 xofiller!SHFILL1_RVT!x405560y686760
*10241 xofiller!SHFILL1_RVT!x407080y686760
*10242 xofiller!SHFILL1_RVT!x408600y686760
*10243 xofiller!SHFILL1_RVT!x410120y686760
*10244 xofiller!SHFILL1_RVT!x411640y686760
*10245 xofiller!SHFILL1_RVT!x413160y686760
*10246 xofiller!SHFILL1_RVT!x414680y686760
*10247 xofiller!SHFILL1_RVT!x416200y686760
*10248 xofiller!SHFILL1_RVT!x417720y686760
*10249 xofiller!SHFILL1_RVT!x419240y686760
*10250 xofiller!SHFILL1_RVT!x420760y686760
*10251 xofiller!SHFILL1_RVT!x422280y686760
*10252 xofiller!SHFILL1_RVT!x423800y686760
*10253 xofiller!SHFILL1_RVT!x425320y686760
*10254 xofiller!SHFILL1_RVT!x426840y686760
*10255 xofiller!SHFILL1_RVT!x428360y686760
*10256 xofiller!SHFILL1_RVT!x429880y686760
*10257 xofiller!SHFILL1_RVT!x431400y686760
*10258 xofiller!SHFILL1_RVT!x432920y686760
*10259 xofiller!SHFILL1_RVT!x434440y686760
*10260 xofiller!SHFILL1_RVT!x435960y686760
*10261 xofiller!SHFILL1_RVT!x437480y686760
*10262 xofiller!SHFILL1_RVT!x439000y686760
*10263 xofiller!SHFILL1_RVT!x440520y686760
*10264 xofiller!SHFILL1_RVT!x442040y686760
*10265 xofiller!SHFILL1_RVT!x443560y686760
*10266 xofiller!SHFILL1_RVT!x445080y686760
*10267 xofiller!SHFILL1_RVT!x446600y686760
*10268 xofiller!SHFILL1_RVT!x448120y686760
*10269 xofiller!SHFILL1_RVT!x449640y686760
*10270 xofiller!SHFILL1_RVT!x451160y686760
*10271 xofiller!SHFILL1_RVT!x452680y686760
*10272 xofiller!SHFILL1_RVT!x454200y686760
*10273 xofiller!SHFILL1_RVT!x455720y686760
*10274 xofiller!SHFILL1_RVT!x457240y686760
*10275 xofiller!SHFILL1_RVT!x458760y686760
*10276 xofiller!SHFILL1_RVT!x460280y686760
*10277 xofiller!SHFILL1_RVT!x461800y686760
*10278 xofiller!SHFILL1_RVT!x463320y686760
*10279 xofiller!SHFILL1_RVT!x464840y686760
*10280 xofiller!SHFILL1_RVT!x466360y686760
*10281 xofiller!SHFILL1_RVT!x467880y686760
*10282 xofiller!SHFILL1_RVT!x469400y686760
*10283 xofiller!SHFILL1_RVT!x470920y686760
*10284 xofiller!SHFILL1_RVT!x472440y686760
*10285 xofiller!SHFILL1_RVT!x473960y686760
*10286 xofiller!SHFILL1_RVT!x475480y686760
*10287 xofiller!SHFILL1_RVT!x477000y686760
*10288 xofiller!SHFILL1_RVT!x478520y686760
*10289 xofiller!SHFILL1_RVT!x480040y686760
*10290 xofiller!SHFILL1_RVT!x481560y686760
*10291 xofiller!SHFILL1_RVT!x483080y686760
*10292 xofiller!SHFILL1_RVT!x484600y686760
*10293 xofiller!SHFILL1_RVT!x486120y686760
*10294 xofiller!SHFILL1_RVT!x487640y686760
*10295 xofiller!SHFILL1_RVT!x489160y686760
*10296 xofiller!SHFILL1_RVT!x490680y686760
*10297 xofiller!SHFILL1_RVT!x492200y686760
*10298 xofiller!SHFILL1_RVT!x493720y686760
*10299 xofiller!SHFILL1_RVT!x495240y686760
*10300 xofiller!SHFILL1_RVT!x496760y686760
*10301 xofiller!SHFILL1_RVT!x498280y686760
*10302 xofiller!SHFILL1_RVT!x499800y686760
*10303 xofiller!SHFILL1_RVT!x501320y686760
*10304 xofiller!SHFILL1_RVT!x502840y686760
*10305 xofiller!SHFILL1_RVT!x504360y686760
*10306 xofiller!SHFILL1_RVT!x505880y686760
*10307 xofiller!SHFILL1_RVT!x507400y686760
*10308 xofiller!SHFILL1_RVT!x508920y686760
*10309 xofiller!SHFILL1_RVT!x510440y686760
*10310 xofiller!SHFILL1_RVT!x511960y686760
*10311 xofiller!SHFILL1_RVT!x513480y686760
*10312 xofiller!SHFILL1_RVT!x515000y686760
*10313 xofiller!SHFILL1_RVT!x516520y686760
*10314 xofiller!SHFILL1_RVT!x518040y686760
*10315 xofiller!SHFILL1_RVT!x519560y686760
*10316 xofiller!SHFILL1_RVT!x521080y686760
*10317 xofiller!SHFILL1_RVT!x522600y686760
*10318 xofiller!SHFILL1_RVT!x524120y686760
*10319 xofiller!SHFILL1_RVT!x525640y686760
*10320 xofiller!SHFILL1_RVT!x527160y686760
*10321 xofiller!SHFILL1_RVT!x528680y686760
*10322 xofiller!SHFILL1_RVT!x530200y686760
*10323 xofiller!SHFILL1_RVT!x531720y686760
*10324 xofiller!SHFILL1_RVT!x533240y686760
*10325 xofiller!SHFILL1_RVT!x534760y686760
*10326 xofiller!SHFILL1_RVT!x536280y686760
*10327 xofiller!SHFILL1_RVT!x537800y686760
*10328 xofiller!SHFILL1_RVT!x539320y686760
*10329 xofiller!SHFILL1_RVT!x540840y686760
*10330 xofiller!SHFILL1_RVT!x542360y686760
*10331 xofiller!SHFILL1_RVT!x543880y686760
*10332 xofiller!SHFILL1_RVT!x545400y686760
*10333 xofiller!SHFILL1_RVT!x546920y686760
*10334 xofiller!SHFILL1_RVT!x548440y686760
*10335 xofiller!SHFILL1_RVT!x549960y686760
*10336 xofiller!SHFILL1_RVT!x551480y686760
*10337 xofiller!SHFILL1_RVT!x553000y686760
*10338 xofiller!SHFILL1_RVT!x554520y686760
*10339 xofiller!SHFILL1_RVT!x556040y686760
*10340 xofiller!SHFILL1_RVT!x557560y686760
*10341 xofiller!SHFILL1_RVT!x559080y686760
*10342 xofiller!SHFILL1_RVT!x560600y686760
*10343 xofiller!SHFILL1_RVT!x562120y686760
*10344 xofiller!SHFILL1_RVT!x563640y686760
*10345 xofiller!SHFILL1_RVT!x565160y686760
*10346 xofiller!SHFILL1_RVT!x566680y686760
*10347 xofiller!SHFILL1_RVT!x568200y686760
*10348 xofiller!SHFILL1_RVT!x569720y686760
*10349 xofiller!SHFILL1_RVT!x571240y686760
*10350 xofiller!SHFILL1_RVT!x572760y686760
*10351 xofiller!SHFILL1_RVT!x574280y686760
*10352 xofiller!SHFILL1_RVT!x575800y686760
*10353 xofiller!SHFILL1_RVT!x577320y686760
*10354 xofiller!SHFILL1_RVT!x578840y686760
*10355 xofiller!SHFILL1_RVT!x580360y686760
*10356 xofiller!SHFILL1_RVT!x581880y686760
*10357 xofiller!SHFILL1_RVT!x583400y686760
*10358 xofiller!SHFILL1_RVT!x584920y686760
*10359 xofiller!SHFILL1_RVT!x586440y686760
*10360 xofiller!SHFILL1_RVT!x587960y686760
*10361 xofiller!SHFILL1_RVT!x589480y686760
*10362 xofiller!SHFILL1_RVT!x591000y686760
*10363 xofiller!SHFILL1_RVT!x592520y686760
*10364 xofiller!SHFILL1_RVT!x594040y686760
*10365 xofiller!SHFILL1_RVT!x595560y686760
*10366 xofiller!SHFILL1_RVT!x597080y686760
*10367 xofiller!SHFILL1_RVT!x598600y686760
*10368 xofiller!SHFILL1_RVT!x600120y686760
*10369 xofiller!SHFILL1_RVT!x601640y686760
*10370 xofiller!SHFILL1_RVT!x603160y686760
*10371 xofiller!SHFILL1_RVT!x604680y686760
*10372 xofiller!SHFILL1_RVT!x606200y686760
*10373 xofiller!SHFILL1_RVT!x607720y686760
*10374 xofiller!SHFILL1_RVT!x609240y686760
*10375 xofiller!SHFILL1_RVT!x610760y686760
*10376 xofiller!SHFILL1_RVT!x612280y686760
*10377 xofiller!SHFILL1_RVT!x613800y686760
*10378 xofiller!SHFILL1_RVT!x615320y686760
*10379 xofiller!SHFILL1_RVT!x616840y686760
*10380 xofiller!SHFILL1_RVT!x618360y686760
*10381 xofiller!SHFILL1_RVT!x619880y686760
*10382 xofiller!SHFILL1_RVT!x621400y686760
*10383 xofiller!SHFILL1_RVT!x622920y686760
*10384 xofiller!SHFILL1_RVT!x624440y686760
*10385 xofiller!SHFILL1_RVT!x625960y686760
*10386 xofiller!SHFILL1_RVT!x627480y686760
*10387 xofiller!SHFILL1_RVT!x629000y686760
*10388 xofiller!SHFILL1_RVT!x630520y686760
*10389 xofiller!SHFILL1_RVT!x632040y686760
*10390 xofiller!SHFILL1_RVT!x633560y686760
*10391 xofiller!SHFILL1_RVT!x635080y686760
*10392 xofiller!SHFILL1_RVT!x636600y686760
*10393 xofiller!SHFILL1_RVT!x638120y686760
*10394 xofiller!SHFILL1_RVT!x639640y686760
*10395 xofiller!SHFILL1_RVT!x641160y686760
*10396 xofiller!SHFILL1_RVT!x642680y686760
*10397 xofiller!SHFILL1_RVT!x644200y686760
*10398 xofiller!SHFILL1_RVT!x645720y686760
*10399 xofiller!SHFILL1_RVT!x647240y686760
*10400 xofiller!SHFILL1_RVT!x648760y686760
*10401 xofiller!SHFILL1_RVT!x650280y686760
*10402 xofiller!SHFILL1_RVT!x651800y686760
*10403 xofiller!SHFILL1_RVT!x653320y686760
*10404 xofiller!SHFILL1_RVT!x654840y686760
*10405 xofiller!SHFILL1_RVT!x656360y686760
*10406 xofiller!SHFILL1_RVT!x657880y686760
*10407 xofiller!SHFILL1_RVT!x659400y686760
*10408 xofiller!SHFILL1_RVT!x660920y686760
*10409 xofiller!SHFILL1_RVT!x662440y686760
*10410 xofiller!SHFILL1_RVT!x663960y686760
*10411 xofiller!SHFILL1_RVT!x665480y686760
*10412 xofiller!SHFILL1_RVT!x667000y686760
*10413 xofiller!SHFILL1_RVT!x668520y686760
*10414 xofiller!SHFILL1_RVT!x670040y686760
*10415 xofiller!SHFILL1_RVT!x671560y686760
*10416 xofiller!SHFILL1_RVT!x673080y686760
*10417 xofiller!SHFILL1_RVT!x685240y686760
*10418 xofiller!SHFILL1_RVT!x686760y686760
*10419 xofiller!SHFILL1_RVT!x688280y686760
*10420 xofiller!SHFILL1_RVT!x689800y686760
*10421 xofiller!SHFILL1_RVT!x691320y686760
*10422 xofiller!SHFILL1_RVT!x692840y686760
*10423 xofiller!SHFILL1_RVT!x694360y686760
*10424 xofiller!SHFILL1_RVT!x695880y686760
*10425 xofiller!SHFILL1_RVT!x697400y686760
*10426 xofiller!SHFILL1_RVT!x698920y686760
*10427 xofiller!SHFILL1_RVT!x700440y686760
*10428 xofiller!SHFILL1_RVT!x701960y686760
*10429 xofiller!SHFILL1_RVT!x703480y686760
*10430 xofiller!SHFILL1_RVT!x705000y686760
*10431 xofiller!SHFILL1_RVT!x706520y686760
*10432 xofiller!SHFILL1_RVT!x708040y686760
*10433 xofiller!SHFILL1_RVT!x709560y686760
*10434 xofiller!SHFILL1_RVT!x711080y686760
*10435 xofiller!SHFILL1_RVT!x712600y686760
*10436 xofiller!SHFILL1_RVT!x714120y686760
*10437 xofiller!SHFILL1_RVT!x715640y686760
*10438 xofiller!SHFILL1_RVT!x717160y686760
*10439 xofiller!SHFILL1_RVT!x718680y686760
*10440 xofiller!SHFILL1_RVT!x720200y686760
*10441 xofiller!SHFILL1_RVT!x729320y686760
*10442 xofiller!SHFILL1_RVT!x730840y686760
*10443 xofiller!SHFILL1_RVT!x732360y686760
*10444 xofiller!SHFILL1_RVT!x733880y686760
*10445 xofiller!SHFILL1_RVT!x735400y686760
*10446 xofiller!SHFILL1_RVT!x736920y686760
*10447 xofiller!SHFILL1_RVT!x738440y686760
*10448 xofiller!SHFILL1_RVT!x739960y686760
*10449 xofiller!SHFILL1_RVT!x741480y686760
*10450 xofiller!SHFILL1_RVT!x743000y686760
*10451 xofiller!SHFILL1_RVT!x744520y686760
*10452 xofiller!SHFILL1_RVT!x135000y703480
*10453 xofiller!SHFILL1_RVT!x136520y703480
*10454 xofiller!SHFILL1_RVT!x138040y703480
*10455 xofiller!SHFILL1_RVT!x139560y703480
*10456 xofiller!SHFILL1_RVT!x141080y703480
*10457 xofiller!SHFILL1_RVT!x142600y703480
*10458 xofiller!SHFILL1_RVT!x144120y703480
*10459 xofiller!SHFILL1_RVT!x145640y703480
*10460 xofiller!SHFILL1_RVT!x147160y703480
*10461 xofiller!SHFILL1_RVT!x148680y703480
*10462 xofiller!SHFILL1_RVT!x150200y703480
*10463 xofiller!SHFILL1_RVT!x151720y703480
*10464 xofiller!SHFILL1_RVT!x153240y703480
*10465 xofiller!SHFILL1_RVT!x154760y703480
*10466 xofiller!SHFILL1_RVT!x156280y703480
*10467 xofiller!SHFILL1_RVT!x157800y703480
*10468 xofiller!SHFILL1_RVT!x159320y703480
*10469 xofiller!SHFILL1_RVT!x160840y703480
*10470 xofiller!SHFILL1_RVT!x162360y703480
*10471 xofiller!SHFILL1_RVT!x163880y703480
*10472 xofiller!SHFILL1_RVT!x165400y703480
*10473 xofiller!SHFILL1_RVT!x166920y703480
*10474 xofiller!SHFILL1_RVT!x168440y703480
*10475 xofiller!SHFILL1_RVT!x169960y703480
*10476 xofiller!SHFILL1_RVT!x171480y703480
*10477 xofiller!SHFILL1_RVT!x173000y703480
*10478 xofiller!SHFILL1_RVT!x174520y703480
*10479 xofiller!SHFILL1_RVT!x176040y703480
*10480 xofiller!SHFILL1_RVT!x177560y703480
*10481 xofiller!SHFILL1_RVT!x179080y703480
*10482 xofiller!SHFILL1_RVT!x180600y703480
*10483 xofiller!SHFILL1_RVT!x182120y703480
*10484 xofiller!SHFILL1_RVT!x183640y703480
*10485 xofiller!SHFILL1_RVT!x185160y703480
*10486 xofiller!SHFILL1_RVT!x186680y703480
*10487 xofiller!SHFILL1_RVT!x188200y703480
*10488 xofiller!SHFILL1_RVT!x189720y703480
*10489 xofiller!SHFILL1_RVT!x191240y703480
*10490 xofiller!SHFILL1_RVT!x192760y703480
*10491 xofiller!SHFILL1_RVT!x194280y703480
*10492 xofiller!SHFILL1_RVT!x207960y703480
*10493 xofiller!SHFILL1_RVT!x209480y703480
*10494 xofiller!SHFILL1_RVT!x211000y703480
*10495 xofiller!SHFILL1_RVT!x212520y703480
*10496 xofiller!SHFILL1_RVT!x214040y703480
*10497 xofiller!SHFILL1_RVT!x215560y703480
*10498 xofiller!SHFILL1_RVT!x217080y703480
*10499 xofiller!SHFILL1_RVT!x218600y703480
*10500 xofiller!SHFILL1_RVT!x220120y703480
*10501 xofiller!SHFILL1_RVT!x221640y703480
*10502 xofiller!SHFILL1_RVT!x223160y703480
*10503 xofiller!SHFILL1_RVT!x224680y703480
*10504 xofiller!SHFILL1_RVT!x226200y703480
*10505 xofiller!SHFILL1_RVT!x227720y703480
*10506 xofiller!SHFILL1_RVT!x229240y703480
*10507 xofiller!SHFILL1_RVT!x230760y703480
*10508 xofiller!SHFILL1_RVT!x232280y703480
*10509 xofiller!SHFILL1_RVT!x233800y703480
*10510 xofiller!SHFILL1_RVT!x235320y703480
*10511 xofiller!SHFILL1_RVT!x236840y703480
*10512 xofiller!SHFILL1_RVT!x238360y703480
*10513 xofiller!SHFILL1_RVT!x239880y703480
*10514 xofiller!SHFILL1_RVT!x241400y703480
*10515 xofiller!SHFILL1_RVT!x242920y703480
*10516 xofiller!SHFILL1_RVT!x244440y703480
*10517 xofiller!SHFILL1_RVT!x245960y703480
*10518 xofiller!SHFILL1_RVT!x247480y703480
*10519 xofiller!SHFILL1_RVT!x249000y703480
*10520 xofiller!SHFILL1_RVT!x250520y703480
*10521 xofiller!SHFILL1_RVT!x252040y703480
*10522 xofiller!SHFILL1_RVT!x253560y703480
*10523 xofiller!SHFILL1_RVT!x255080y703480
*10524 xofiller!SHFILL1_RVT!x256600y703480
*10525 xofiller!SHFILL1_RVT!x258120y703480
*10526 xofiller!SHFILL1_RVT!x259640y703480
*10527 xofiller!SHFILL1_RVT!x261160y703480
*10528 xofiller!SHFILL1_RVT!x262680y703480
*10529 xofiller!SHFILL1_RVT!x264200y703480
*10530 xofiller!SHFILL1_RVT!x265720y703480
*10531 xofiller!SHFILL1_RVT!x267240y703480
*10532 xofiller!SHFILL1_RVT!x268760y703480
*10533 xofiller!SHFILL1_RVT!x270280y703480
*10534 xofiller!SHFILL1_RVT!x271800y703480
*10535 xofiller!SHFILL1_RVT!x273320y703480
*10536 xofiller!SHFILL1_RVT!x274840y703480
*10537 xofiller!SHFILL1_RVT!x276360y703480
*10538 xofiller!SHFILL1_RVT!x277880y703480
*10539 xofiller!SHFILL1_RVT!x279400y703480
*10540 xofiller!SHFILL1_RVT!x280920y703480
*10541 xofiller!SHFILL1_RVT!x282440y703480
*10542 xofiller!SHFILL1_RVT!x283960y703480
*10543 xofiller!SHFILL1_RVT!x285480y703480
*10544 xofiller!SHFILL1_RVT!x287000y703480
*10545 xofiller!SHFILL1_RVT!x288520y703480
*10546 xofiller!SHFILL1_RVT!x290040y703480
*10547 xofiller!SHFILL1_RVT!x291560y703480
*10548 xofiller!SHFILL1_RVT!x293080y703480
*10549 xofiller!SHFILL1_RVT!x294600y703480
*10550 xofiller!SHFILL1_RVT!x296120y703480
*10551 xofiller!SHFILL1_RVT!x297640y703480
*10552 xofiller!SHFILL1_RVT!x299160y703480
*10553 xofiller!SHFILL1_RVT!x300680y703480
*10554 xofiller!SHFILL1_RVT!x302200y703480
*10555 xofiller!SHFILL1_RVT!x303720y703480
*10556 xofiller!SHFILL1_RVT!x305240y703480
*10557 xofiller!SHFILL1_RVT!x306760y703480
*10558 xofiller!SHFILL1_RVT!x308280y703480
*10559 xofiller!SHFILL1_RVT!x309800y703480
*10560 xofiller!SHFILL1_RVT!x311320y703480
*10561 xofiller!SHFILL1_RVT!x312840y703480
*10562 xofiller!SHFILL1_RVT!x314360y703480
*10563 xofiller!SHFILL1_RVT!x315880y703480
*10564 xofiller!SHFILL1_RVT!x317400y703480
*10565 xofiller!SHFILL1_RVT!x318920y703480
*10566 xofiller!SHFILL1_RVT!x320440y703480
*10567 xofiller!SHFILL1_RVT!x321960y703480
*10568 xofiller!SHFILL1_RVT!x323480y703480
*10569 xofiller!SHFILL1_RVT!x325000y703480
*10570 xofiller!SHFILL1_RVT!x326520y703480
*10571 xofiller!SHFILL1_RVT!x328040y703480
*10572 xofiller!SHFILL1_RVT!x329560y703480
*10573 xofiller!SHFILL1_RVT!x331080y703480
*10574 xofiller!SHFILL1_RVT!x332600y703480
*10575 xofiller!SHFILL1_RVT!x334120y703480
*10576 xofiller!SHFILL1_RVT!x335640y703480
*10577 xofiller!SHFILL1_RVT!x337160y703480
*10578 xofiller!SHFILL1_RVT!x338680y703480
*10579 xofiller!SHFILL1_RVT!x340200y703480
*10580 xofiller!SHFILL1_RVT!x341720y703480
*10581 xofiller!SHFILL1_RVT!x343240y703480
*10582 xofiller!SHFILL1_RVT!x344760y703480
*10583 xofiller!SHFILL1_RVT!x346280y703480
*10584 xofiller!SHFILL1_RVT!x347800y703480
*10585 xofiller!SHFILL1_RVT!x349320y703480
*10586 xofiller!SHFILL1_RVT!x350840y703480
*10587 xofiller!SHFILL1_RVT!x352360y703480
*10588 xofiller!SHFILL1_RVT!x353880y703480
*10589 xofiller!SHFILL1_RVT!x355400y703480
*10590 xofiller!SHFILL1_RVT!x356920y703480
*10591 xofiller!SHFILL1_RVT!x358440y703480
*10592 xofiller!SHFILL1_RVT!x359960y703480
*10593 xofiller!SHFILL1_RVT!x361480y703480
*10594 xofiller!SHFILL1_RVT!x363000y703480
*10595 xofiller!SHFILL1_RVT!x364520y703480
*10596 xofiller!SHFILL1_RVT!x366040y703480
*10597 xofiller!SHFILL1_RVT!x367560y703480
*10598 xofiller!SHFILL1_RVT!x369080y703480
*10599 xofiller!SHFILL1_RVT!x370600y703480
*10600 xofiller!SHFILL1_RVT!x372120y703480
*10601 xofiller!SHFILL1_RVT!x373640y703480
*10602 xofiller!SHFILL1_RVT!x375160y703480
*10603 xofiller!SHFILL1_RVT!x376680y703480
*10604 xofiller!SHFILL1_RVT!x378200y703480
*10605 xofiller!SHFILL1_RVT!x379720y703480
*10606 xofiller!SHFILL1_RVT!x381240y703480
*10607 xofiller!SHFILL1_RVT!x382760y703480
*10608 xofiller!SHFILL1_RVT!x384280y703480
*10609 xofiller!SHFILL1_RVT!x385800y703480
*10610 xofiller!SHFILL1_RVT!x387320y703480
*10611 xofiller!SHFILL1_RVT!x388840y703480
*10612 xofiller!SHFILL1_RVT!x390360y703480
*10613 xofiller!SHFILL1_RVT!x391880y703480
*10614 xofiller!SHFILL1_RVT!x393400y703480
*10615 xofiller!SHFILL1_RVT!x394920y703480
*10616 xofiller!SHFILL1_RVT!x396440y703480
*10617 xofiller!SHFILL1_RVT!x397960y703480
*10618 xofiller!SHFILL1_RVT!x399480y703480
*10619 xofiller!SHFILL1_RVT!x401000y703480
*10620 xofiller!SHFILL1_RVT!x402520y703480
*10621 xofiller!SHFILL1_RVT!x404040y703480
*10622 xofiller!SHFILL1_RVT!x405560y703480
*10623 xofiller!SHFILL1_RVT!x407080y703480
*10624 xofiller!SHFILL1_RVT!x408600y703480
*10625 xofiller!SHFILL1_RVT!x410120y703480
*10626 xofiller!SHFILL1_RVT!x411640y703480
*10627 xofiller!SHFILL1_RVT!x413160y703480
*10628 xofiller!SHFILL1_RVT!x414680y703480
*10629 xofiller!SHFILL1_RVT!x416200y703480
*10630 xofiller!SHFILL1_RVT!x417720y703480
*10631 xofiller!SHFILL1_RVT!x419240y703480
*10632 xofiller!SHFILL1_RVT!x420760y703480
*10633 xofiller!SHFILL1_RVT!x422280y703480
*10634 xofiller!SHFILL1_RVT!x423800y703480
*10635 xofiller!SHFILL1_RVT!x425320y703480
*10636 xofiller!SHFILL1_RVT!x426840y703480
*10637 xofiller!SHFILL1_RVT!x428360y703480
*10638 xofiller!SHFILL1_RVT!x429880y703480
*10639 xofiller!SHFILL1_RVT!x431400y703480
*10640 xofiller!SHFILL1_RVT!x432920y703480
*10641 xofiller!SHFILL1_RVT!x434440y703480
*10642 xofiller!SHFILL1_RVT!x435960y703480
*10643 xofiller!SHFILL1_RVT!x437480y703480
*10644 xofiller!SHFILL1_RVT!x439000y703480
*10645 xofiller!SHFILL1_RVT!x440520y703480
*10646 xofiller!SHFILL1_RVT!x442040y703480
*10647 xofiller!SHFILL1_RVT!x443560y703480
*10648 xofiller!SHFILL1_RVT!x445080y703480
*10649 xofiller!SHFILL1_RVT!x446600y703480
*10650 xofiller!SHFILL1_RVT!x448120y703480
*10651 xofiller!SHFILL1_RVT!x449640y703480
*10652 xofiller!SHFILL1_RVT!x451160y703480
*10653 xofiller!SHFILL1_RVT!x452680y703480
*10654 xofiller!SHFILL1_RVT!x454200y703480
*10655 xofiller!SHFILL1_RVT!x455720y703480
*10656 xofiller!SHFILL1_RVT!x457240y703480
*10657 xofiller!SHFILL1_RVT!x458760y703480
*10658 xofiller!SHFILL1_RVT!x460280y703480
*10659 xofiller!SHFILL1_RVT!x461800y703480
*10660 xofiller!SHFILL1_RVT!x463320y703480
*10661 xofiller!SHFILL1_RVT!x464840y703480
*10662 xofiller!SHFILL1_RVT!x466360y703480
*10663 xofiller!SHFILL1_RVT!x467880y703480
*10664 xofiller!SHFILL1_RVT!x469400y703480
*10665 xofiller!SHFILL1_RVT!x470920y703480
*10666 xofiller!SHFILL1_RVT!x472440y703480
*10667 xofiller!SHFILL1_RVT!x473960y703480
*10668 xofiller!SHFILL1_RVT!x475480y703480
*10669 xofiller!SHFILL1_RVT!x477000y703480
*10670 xofiller!SHFILL1_RVT!x478520y703480
*10671 xofiller!SHFILL1_RVT!x480040y703480
*10672 xofiller!SHFILL1_RVT!x481560y703480
*10673 xofiller!SHFILL1_RVT!x483080y703480
*10674 xofiller!SHFILL1_RVT!x484600y703480
*10675 xofiller!SHFILL1_RVT!x486120y703480
*10676 xofiller!SHFILL1_RVT!x487640y703480
*10677 xofiller!SHFILL1_RVT!x489160y703480
*10678 xofiller!SHFILL1_RVT!x490680y703480
*10679 xofiller!SHFILL1_RVT!x492200y703480
*10680 xofiller!SHFILL1_RVT!x493720y703480
*10681 xofiller!SHFILL1_RVT!x495240y703480
*10682 xofiller!SHFILL1_RVT!x496760y703480
*10683 xofiller!SHFILL1_RVT!x498280y703480
*10684 xofiller!SHFILL1_RVT!x499800y703480
*10685 xofiller!SHFILL1_RVT!x501320y703480
*10686 xofiller!SHFILL1_RVT!x502840y703480
*10687 xofiller!SHFILL1_RVT!x504360y703480
*10688 xofiller!SHFILL1_RVT!x505880y703480
*10689 xofiller!SHFILL1_RVT!x507400y703480
*10690 xofiller!SHFILL1_RVT!x508920y703480
*10691 xofiller!SHFILL1_RVT!x510440y703480
*10692 xofiller!SHFILL1_RVT!x511960y703480
*10693 xofiller!SHFILL1_RVT!x513480y703480
*10694 xofiller!SHFILL1_RVT!x515000y703480
*10695 xofiller!SHFILL1_RVT!x516520y703480
*10696 xofiller!SHFILL1_RVT!x518040y703480
*10697 xofiller!SHFILL1_RVT!x519560y703480
*10698 xofiller!SHFILL1_RVT!x521080y703480
*10699 xofiller!SHFILL1_RVT!x522600y703480
*10700 xofiller!SHFILL1_RVT!x524120y703480
*10701 xofiller!SHFILL1_RVT!x525640y703480
*10702 xofiller!SHFILL1_RVT!x527160y703480
*10703 xofiller!SHFILL1_RVT!x528680y703480
*10704 xofiller!SHFILL1_RVT!x530200y703480
*10705 xofiller!SHFILL1_RVT!x531720y703480
*10706 xofiller!SHFILL1_RVT!x533240y703480
*10707 xofiller!SHFILL1_RVT!x534760y703480
*10708 xofiller!SHFILL1_RVT!x536280y703480
*10709 xofiller!SHFILL1_RVT!x537800y703480
*10710 xofiller!SHFILL1_RVT!x539320y703480
*10711 xofiller!SHFILL1_RVT!x540840y703480
*10712 xofiller!SHFILL1_RVT!x542360y703480
*10713 xofiller!SHFILL1_RVT!x543880y703480
*10714 xofiller!SHFILL1_RVT!x545400y703480
*10715 xofiller!SHFILL1_RVT!x546920y703480
*10716 xofiller!SHFILL1_RVT!x548440y703480
*10717 xofiller!SHFILL1_RVT!x549960y703480
*10718 xofiller!SHFILL1_RVT!x551480y703480
*10719 xofiller!SHFILL1_RVT!x553000y703480
*10720 xofiller!SHFILL1_RVT!x554520y703480
*10721 xofiller!SHFILL1_RVT!x556040y703480
*10722 xofiller!SHFILL1_RVT!x557560y703480
*10723 xofiller!SHFILL1_RVT!x559080y703480
*10724 xofiller!SHFILL1_RVT!x560600y703480
*10725 xofiller!SHFILL1_RVT!x562120y703480
*10726 xofiller!SHFILL1_RVT!x563640y703480
*10727 xofiller!SHFILL1_RVT!x565160y703480
*10728 xofiller!SHFILL1_RVT!x566680y703480
*10729 xofiller!SHFILL1_RVT!x568200y703480
*10730 xofiller!SHFILL1_RVT!x569720y703480
*10731 xofiller!SHFILL1_RVT!x571240y703480
*10732 xofiller!SHFILL1_RVT!x572760y703480
*10733 xofiller!SHFILL1_RVT!x574280y703480
*10734 xofiller!SHFILL1_RVT!x575800y703480
*10735 xofiller!SHFILL1_RVT!x577320y703480
*10736 xofiller!SHFILL1_RVT!x578840y703480
*10737 xofiller!SHFILL1_RVT!x580360y703480
*10738 xofiller!SHFILL1_RVT!x581880y703480
*10739 xofiller!SHFILL1_RVT!x583400y703480
*10740 xofiller!SHFILL1_RVT!x584920y703480
*10741 xofiller!SHFILL1_RVT!x586440y703480
*10742 xofiller!SHFILL1_RVT!x587960y703480
*10743 xofiller!SHFILL1_RVT!x589480y703480
*10744 xofiller!SHFILL1_RVT!x591000y703480
*10745 xofiller!SHFILL1_RVT!x592520y703480
*10746 xofiller!SHFILL1_RVT!x594040y703480
*10747 xofiller!SHFILL1_RVT!x595560y703480
*10748 xofiller!SHFILL1_RVT!x597080y703480
*10749 xofiller!SHFILL1_RVT!x598600y703480
*10750 xofiller!SHFILL1_RVT!x600120y703480
*10751 xofiller!SHFILL1_RVT!x601640y703480
*10752 xofiller!SHFILL1_RVT!x603160y703480
*10753 xofiller!SHFILL1_RVT!x604680y703480
*10754 xofiller!SHFILL1_RVT!x606200y703480
*10755 xofiller!SHFILL1_RVT!x607720y703480
*10756 xofiller!SHFILL1_RVT!x609240y703480
*10757 xofiller!SHFILL1_RVT!x610760y703480
*10758 xofiller!SHFILL1_RVT!x612280y703480
*10759 xofiller!SHFILL1_RVT!x613800y703480
*10760 xofiller!SHFILL1_RVT!x615320y703480
*10761 xofiller!SHFILL1_RVT!x616840y703480
*10762 xofiller!SHFILL1_RVT!x618360y703480
*10763 xofiller!SHFILL1_RVT!x619880y703480
*10764 xofiller!SHFILL1_RVT!x621400y703480
*10765 xofiller!SHFILL1_RVT!x622920y703480
*10766 xofiller!SHFILL1_RVT!x624440y703480
*10767 xofiller!SHFILL1_RVT!x625960y703480
*10768 xofiller!SHFILL1_RVT!x627480y703480
*10769 xofiller!SHFILL1_RVT!x629000y703480
*10770 xofiller!SHFILL1_RVT!x630520y703480
*10771 xofiller!SHFILL1_RVT!x632040y703480
*10772 xofiller!SHFILL1_RVT!x633560y703480
*10773 xofiller!SHFILL1_RVT!x635080y703480
*10774 xofiller!SHFILL1_RVT!x636600y703480
*10775 xofiller!SHFILL1_RVT!x638120y703480
*10776 xofiller!SHFILL1_RVT!x639640y703480
*10777 xofiller!SHFILL1_RVT!x641160y703480
*10778 xofiller!SHFILL1_RVT!x642680y703480
*10779 xofiller!SHFILL1_RVT!x644200y703480
*10780 xofiller!SHFILL1_RVT!x645720y703480
*10781 xofiller!SHFILL1_RVT!x647240y703480
*10782 xofiller!SHFILL1_RVT!x648760y703480
*10783 xofiller!SHFILL1_RVT!x650280y703480
*10784 xofiller!SHFILL1_RVT!x651800y703480
*10785 xofiller!SHFILL1_RVT!x653320y703480
*10786 xofiller!SHFILL1_RVT!x654840y703480
*10787 xofiller!SHFILL1_RVT!x656360y703480
*10788 xofiller!SHFILL1_RVT!x657880y703480
*10789 xofiller!SHFILL1_RVT!x659400y703480
*10790 xofiller!SHFILL1_RVT!x660920y703480
*10791 xofiller!SHFILL1_RVT!x662440y703480
*10792 xofiller!SHFILL1_RVT!x663960y703480
*10793 xofiller!SHFILL1_RVT!x665480y703480
*10794 xofiller!SHFILL1_RVT!x667000y703480
*10795 xofiller!SHFILL1_RVT!x668520y703480
*10796 xofiller!SHFILL1_RVT!x670040y703480
*10797 xofiller!SHFILL1_RVT!x671560y703480
*10798 xofiller!SHFILL1_RVT!x673080y703480
*10799 xofiller!SHFILL1_RVT!x674600y703480
*10800 xofiller!SHFILL1_RVT!x676120y703480
*10801 xofiller!SHFILL1_RVT!x677640y703480
*10802 xofiller!SHFILL1_RVT!x679160y703480
*10803 xofiller!SHFILL1_RVT!x680680y703480
*10804 xofiller!SHFILL1_RVT!x682200y703480
*10805 xofiller!SHFILL1_RVT!x683720y703480
*10806 xofiller!SHFILL1_RVT!x685240y703480
*10807 xofiller!SHFILL1_RVT!x686760y703480
*10808 xofiller!SHFILL1_RVT!x688280y703480
*10809 xofiller!SHFILL1_RVT!x689800y703480
*10810 xofiller!SHFILL1_RVT!x691320y703480
*10811 xofiller!SHFILL1_RVT!x692840y703480
*10812 xofiller!SHFILL1_RVT!x694360y703480
*10813 xofiller!SHFILL1_RVT!x695880y703480
*10814 xofiller!SHFILL1_RVT!x697400y703480
*10815 xofiller!SHFILL1_RVT!x698920y703480
*10816 xofiller!SHFILL1_RVT!x700440y703480
*10817 xofiller!SHFILL1_RVT!x701960y703480
*10818 xofiller!SHFILL1_RVT!x703480y703480
*10819 xofiller!SHFILL1_RVT!x705000y703480
*10820 xofiller!SHFILL1_RVT!x706520y703480
*10821 xofiller!SHFILL1_RVT!x708040y703480
*10822 xofiller!SHFILL1_RVT!x709560y703480
*10823 xofiller!SHFILL1_RVT!x711080y703480
*10824 xofiller!SHFILL1_RVT!x712600y703480
*10825 xofiller!SHFILL1_RVT!x714120y703480
*10826 xofiller!SHFILL1_RVT!x715640y703480
*10827 xofiller!SHFILL1_RVT!x717160y703480
*10828 xofiller!SHFILL1_RVT!x727800y703480
*10829 xofiller!SHFILL1_RVT!x729320y703480
*10830 xofiller!SHFILL1_RVT!x730840y703480
*10831 xofiller!SHFILL1_RVT!x732360y703480
*10832 xofiller!SHFILL1_RVT!x733880y703480
*10833 xofiller!SHFILL1_RVT!x735400y703480
*10834 xofiller!SHFILL1_RVT!x736920y703480
*10835 xofiller!SHFILL1_RVT!x738440y703480
*10836 xofiller!SHFILL1_RVT!x739960y703480
*10837 xofiller!SHFILL1_RVT!x741480y703480
*10838 xofiller!SHFILL1_RVT!x743000y703480
*10839 xofiller!SHFILL1_RVT!x744520y703480
*10840 xofiller!SHFILL1_RVT!x135000y720200
*10841 xofiller!SHFILL1_RVT!x136520y720200
*10842 xofiller!SHFILL1_RVT!x138040y720200
*10843 xofiller!SHFILL1_RVT!x139560y720200
*10844 xofiller!SHFILL1_RVT!x141080y720200
*10845 xofiller!SHFILL1_RVT!x142600y720200
*10846 xofiller!SHFILL1_RVT!x144120y720200
*10847 xofiller!SHFILL1_RVT!x145640y720200
*10848 xofiller!SHFILL1_RVT!x147160y720200
*10849 xofiller!SHFILL1_RVT!x148680y720200
*10850 xofiller!SHFILL1_RVT!x150200y720200
*10851 xofiller!SHFILL1_RVT!x151720y720200
*10852 xofiller!SHFILL1_RVT!x153240y720200
*10853 xofiller!SHFILL1_RVT!x154760y720200
*10854 xofiller!SHFILL1_RVT!x156280y720200
*10855 xofiller!SHFILL1_RVT!x157800y720200
*10856 xofiller!SHFILL1_RVT!x159320y720200
*10857 xofiller!SHFILL1_RVT!x160840y720200
*10858 xofiller!SHFILL1_RVT!x162360y720200
*10859 xofiller!SHFILL1_RVT!x163880y720200
*10860 xofiller!SHFILL1_RVT!x165400y720200
*10861 xofiller!SHFILL1_RVT!x166920y720200
*10862 xofiller!SHFILL1_RVT!x168440y720200
*10863 xofiller!SHFILL1_RVT!x169960y720200
*10864 xofiller!SHFILL1_RVT!x171480y720200
*10865 xofiller!SHFILL1_RVT!x173000y720200
*10866 xofiller!SHFILL1_RVT!x174520y720200
*10867 xofiller!SHFILL1_RVT!x176040y720200
*10868 xofiller!SHFILL1_RVT!x177560y720200
*10869 xofiller!SHFILL1_RVT!x179080y720200
*10870 xofiller!SHFILL1_RVT!x180600y720200
*10871 xofiller!SHFILL1_RVT!x182120y720200
*10872 xofiller!SHFILL1_RVT!x183640y720200
*10873 xofiller!SHFILL1_RVT!x185160y720200
*10874 xofiller!SHFILL1_RVT!x186680y720200
*10875 xofiller!SHFILL1_RVT!x188200y720200
*10876 xofiller!SHFILL1_RVT!x189720y720200
*10877 xofiller!SHFILL1_RVT!x191240y720200
*10878 xofiller!SHFILL1_RVT!x192760y720200
*10879 xofiller!SHFILL1_RVT!x194280y720200
*10880 xofiller!SHFILL1_RVT!x195800y720200
*10881 xofiller!SHFILL1_RVT!x197320y720200
*10882 xofiller!SHFILL1_RVT!x198840y720200
*10883 xofiller!SHFILL1_RVT!x200360y720200
*10884 xofiller!SHFILL1_RVT!x201880y720200
*10885 xofiller!SHFILL1_RVT!x203400y720200
*10886 xofiller!SHFILL1_RVT!x204920y720200
*10887 xofiller!SHFILL1_RVT!x206440y720200
*10888 xofiller!SHFILL1_RVT!x207960y720200
*10889 xofiller!SHFILL1_RVT!x209480y720200
*10890 xofiller!SHFILL1_RVT!x211000y720200
*10891 xofiller!SHFILL1_RVT!x212520y720200
*10892 xofiller!SHFILL1_RVT!x214040y720200
*10893 xofiller!SHFILL1_RVT!x215560y720200
*10894 xofiller!SHFILL1_RVT!x217080y720200
*10895 xofiller!SHFILL1_RVT!x218600y720200
*10896 xofiller!SHFILL1_RVT!x220120y720200
*10897 xofiller!SHFILL1_RVT!x221640y720200
*10898 xofiller!SHFILL1_RVT!x223160y720200
*10899 xofiller!SHFILL1_RVT!x224680y720200
*10900 xofiller!SHFILL1_RVT!x226200y720200
*10901 xofiller!SHFILL1_RVT!x227720y720200
*10902 xofiller!SHFILL1_RVT!x229240y720200
*10903 xofiller!SHFILL1_RVT!x230760y720200
*10904 xofiller!SHFILL1_RVT!x232280y720200
*10905 xofiller!SHFILL1_RVT!x233800y720200
*10906 xofiller!SHFILL1_RVT!x235320y720200
*10907 xofiller!SHFILL1_RVT!x236840y720200
*10908 xofiller!SHFILL1_RVT!x238360y720200
*10909 xofiller!SHFILL1_RVT!x239880y720200
*10910 xofiller!SHFILL1_RVT!x241400y720200
*10911 xofiller!SHFILL1_RVT!x242920y720200
*10912 xofiller!SHFILL1_RVT!x244440y720200
*10913 xofiller!SHFILL1_RVT!x245960y720200
*10914 xofiller!SHFILL1_RVT!x247480y720200
*10915 xofiller!SHFILL1_RVT!x249000y720200
*10916 xofiller!SHFILL1_RVT!x250520y720200
*10917 xofiller!SHFILL1_RVT!x252040y720200
*10918 xofiller!SHFILL1_RVT!x253560y720200
*10919 xofiller!SHFILL1_RVT!x255080y720200
*10920 xofiller!SHFILL1_RVT!x256600y720200
*10921 xofiller!SHFILL1_RVT!x258120y720200
*10922 xofiller!SHFILL1_RVT!x259640y720200
*10923 xofiller!SHFILL1_RVT!x261160y720200
*10924 xofiller!SHFILL1_RVT!x262680y720200
*10925 xofiller!SHFILL1_RVT!x264200y720200
*10926 xofiller!SHFILL1_RVT!x265720y720200
*10927 xofiller!SHFILL1_RVT!x267240y720200
*10928 xofiller!SHFILL1_RVT!x268760y720200
*10929 xofiller!SHFILL1_RVT!x270280y720200
*10930 xofiller!SHFILL1_RVT!x271800y720200
*10931 xofiller!SHFILL1_RVT!x273320y720200
*10932 xofiller!SHFILL1_RVT!x274840y720200
*10933 xofiller!SHFILL1_RVT!x276360y720200
*10934 xofiller!SHFILL1_RVT!x277880y720200
*10935 xofiller!SHFILL1_RVT!x279400y720200
*10936 xofiller!SHFILL1_RVT!x280920y720200
*10937 xofiller!SHFILL1_RVT!x282440y720200
*10938 xofiller!SHFILL1_RVT!x283960y720200
*10939 xofiller!SHFILL1_RVT!x285480y720200
*10940 xofiller!SHFILL1_RVT!x287000y720200
*10941 xofiller!SHFILL1_RVT!x288520y720200
*10942 xofiller!SHFILL1_RVT!x290040y720200
*10943 xofiller!SHFILL1_RVT!x291560y720200
*10944 xofiller!SHFILL1_RVT!x293080y720200
*10945 xofiller!SHFILL1_RVT!x294600y720200
*10946 xofiller!SHFILL1_RVT!x296120y720200
*10947 xofiller!SHFILL1_RVT!x297640y720200
*10948 xofiller!SHFILL1_RVT!x299160y720200
*10949 xofiller!SHFILL1_RVT!x300680y720200
*10950 xofiller!SHFILL1_RVT!x302200y720200
*10951 xofiller!SHFILL1_RVT!x303720y720200
*10952 xofiller!SHFILL1_RVT!x305240y720200
*10953 xofiller!SHFILL1_RVT!x306760y720200
*10954 xofiller!SHFILL1_RVT!x308280y720200
*10955 xofiller!SHFILL1_RVT!x309800y720200
*10956 xofiller!SHFILL1_RVT!x311320y720200
*10957 xofiller!SHFILL1_RVT!x312840y720200
*10958 xofiller!SHFILL1_RVT!x314360y720200
*10959 xofiller!SHFILL1_RVT!x315880y720200
*10960 xofiller!SHFILL1_RVT!x317400y720200
*10961 xofiller!SHFILL1_RVT!x318920y720200
*10962 xofiller!SHFILL1_RVT!x320440y720200
*10963 xofiller!SHFILL1_RVT!x321960y720200
*10964 xofiller!SHFILL1_RVT!x323480y720200
*10965 xofiller!SHFILL1_RVT!x325000y720200
*10966 xofiller!SHFILL1_RVT!x326520y720200
*10967 xofiller!SHFILL1_RVT!x328040y720200
*10968 xofiller!SHFILL1_RVT!x329560y720200
*10969 xofiller!SHFILL1_RVT!x331080y720200
*10970 xofiller!SHFILL1_RVT!x332600y720200
*10971 xofiller!SHFILL1_RVT!x334120y720200
*10972 xofiller!SHFILL1_RVT!x335640y720200
*10973 xofiller!SHFILL1_RVT!x337160y720200
*10974 xofiller!SHFILL1_RVT!x338680y720200
*10975 xofiller!SHFILL1_RVT!x340200y720200
*10976 xofiller!SHFILL1_RVT!x341720y720200
*10977 xofiller!SHFILL1_RVT!x343240y720200
*10978 xofiller!SHFILL1_RVT!x344760y720200
*10979 xofiller!SHFILL1_RVT!x346280y720200
*10980 xofiller!SHFILL1_RVT!x347800y720200
*10981 xofiller!SHFILL1_RVT!x349320y720200
*10982 xofiller!SHFILL1_RVT!x350840y720200
*10983 xofiller!SHFILL1_RVT!x352360y720200
*10984 xofiller!SHFILL1_RVT!x353880y720200
*10985 xofiller!SHFILL1_RVT!x355400y720200
*10986 xofiller!SHFILL1_RVT!x356920y720200
*10987 xofiller!SHFILL1_RVT!x358440y720200
*10988 xofiller!SHFILL1_RVT!x359960y720200
*10989 xofiller!SHFILL1_RVT!x361480y720200
*10990 xofiller!SHFILL1_RVT!x363000y720200
*10991 xofiller!SHFILL1_RVT!x364520y720200
*10992 xofiller!SHFILL1_RVT!x366040y720200
*10993 xofiller!SHFILL1_RVT!x367560y720200
*10994 xofiller!SHFILL1_RVT!x369080y720200
*10995 xofiller!SHFILL1_RVT!x370600y720200
*10996 xofiller!SHFILL1_RVT!x372120y720200
*10997 xofiller!SHFILL1_RVT!x373640y720200
*10998 xofiller!SHFILL1_RVT!x375160y720200
*10999 xofiller!SHFILL1_RVT!x376680y720200
*11000 xofiller!SHFILL1_RVT!x378200y720200
*11001 xofiller!SHFILL1_RVT!x379720y720200
*11002 xofiller!SHFILL1_RVT!x381240y720200
*11003 xofiller!SHFILL1_RVT!x382760y720200
*11004 xofiller!SHFILL1_RVT!x384280y720200
*11005 xofiller!SHFILL1_RVT!x385800y720200
*11006 xofiller!SHFILL1_RVT!x387320y720200
*11007 xofiller!SHFILL1_RVT!x388840y720200
*11008 xofiller!SHFILL1_RVT!x390360y720200
*11009 xofiller!SHFILL1_RVT!x391880y720200
*11010 xofiller!SHFILL1_RVT!x393400y720200
*11011 xofiller!SHFILL1_RVT!x394920y720200
*11012 xofiller!SHFILL1_RVT!x396440y720200
*11013 xofiller!SHFILL1_RVT!x397960y720200
*11014 xofiller!SHFILL1_RVT!x399480y720200
*11015 xofiller!SHFILL1_RVT!x401000y720200
*11016 xofiller!SHFILL1_RVT!x402520y720200
*11017 xofiller!SHFILL1_RVT!x404040y720200
*11018 xofiller!SHFILL1_RVT!x405560y720200
*11019 xofiller!SHFILL1_RVT!x407080y720200
*11020 xofiller!SHFILL1_RVT!x408600y720200
*11021 xofiller!SHFILL1_RVT!x410120y720200
*11022 xofiller!SHFILL1_RVT!x411640y720200
*11023 xofiller!SHFILL1_RVT!x413160y720200
*11024 xofiller!SHFILL1_RVT!x414680y720200
*11025 xofiller!SHFILL1_RVT!x416200y720200
*11026 xofiller!SHFILL1_RVT!x417720y720200
*11027 xofiller!SHFILL1_RVT!x419240y720200
*11028 xofiller!SHFILL1_RVT!x420760y720200
*11029 xofiller!SHFILL1_RVT!x422280y720200
*11030 xofiller!SHFILL1_RVT!x423800y720200
*11031 xofiller!SHFILL1_RVT!x425320y720200
*11032 xofiller!SHFILL1_RVT!x426840y720200
*11033 xofiller!SHFILL1_RVT!x428360y720200
*11034 xofiller!SHFILL1_RVT!x429880y720200
*11035 xofiller!SHFILL1_RVT!x431400y720200
*11036 xofiller!SHFILL1_RVT!x432920y720200
*11037 xofiller!SHFILL1_RVT!x434440y720200
*11038 xofiller!SHFILL1_RVT!x435960y720200
*11039 xofiller!SHFILL1_RVT!x437480y720200
*11040 xofiller!SHFILL1_RVT!x439000y720200
*11041 xofiller!SHFILL1_RVT!x440520y720200
*11042 xofiller!SHFILL1_RVT!x442040y720200
*11043 xofiller!SHFILL1_RVT!x443560y720200
*11044 xofiller!SHFILL1_RVT!x445080y720200
*11045 xofiller!SHFILL1_RVT!x446600y720200
*11046 xofiller!SHFILL1_RVT!x448120y720200
*11047 xofiller!SHFILL1_RVT!x449640y720200
*11048 xofiller!SHFILL1_RVT!x451160y720200
*11049 xofiller!SHFILL1_RVT!x452680y720200
*11050 xofiller!SHFILL1_RVT!x454200y720200
*11051 xofiller!SHFILL1_RVT!x455720y720200
*11052 xofiller!SHFILL1_RVT!x457240y720200
*11053 xofiller!SHFILL1_RVT!x458760y720200
*11054 xofiller!SHFILL1_RVT!x460280y720200
*11055 xofiller!SHFILL1_RVT!x461800y720200
*11056 xofiller!SHFILL1_RVT!x463320y720200
*11057 xofiller!SHFILL1_RVT!x464840y720200
*11058 xofiller!SHFILL1_RVT!x466360y720200
*11059 xofiller!SHFILL1_RVT!x467880y720200
*11060 xofiller!SHFILL1_RVT!x469400y720200
*11061 xofiller!SHFILL1_RVT!x470920y720200
*11062 xofiller!SHFILL1_RVT!x472440y720200
*11063 xofiller!SHFILL1_RVT!x473960y720200
*11064 xofiller!SHFILL1_RVT!x475480y720200
*11065 xofiller!SHFILL1_RVT!x477000y720200
*11066 xofiller!SHFILL1_RVT!x478520y720200
*11067 xofiller!SHFILL1_RVT!x480040y720200
*11068 xofiller!SHFILL1_RVT!x481560y720200
*11069 xofiller!SHFILL1_RVT!x483080y720200
*11070 xofiller!SHFILL1_RVT!x484600y720200
*11071 xofiller!SHFILL1_RVT!x486120y720200
*11072 xofiller!SHFILL1_RVT!x487640y720200
*11073 xofiller!SHFILL1_RVT!x489160y720200
*11074 xofiller!SHFILL1_RVT!x490680y720200
*11075 xofiller!SHFILL1_RVT!x492200y720200
*11076 xofiller!SHFILL1_RVT!x493720y720200
*11077 xofiller!SHFILL1_RVT!x495240y720200
*11078 xofiller!SHFILL1_RVT!x496760y720200
*11079 xofiller!SHFILL1_RVT!x498280y720200
*11080 xofiller!SHFILL1_RVT!x499800y720200
*11081 xofiller!SHFILL1_RVT!x501320y720200
*11082 xofiller!SHFILL1_RVT!x502840y720200
*11083 xofiller!SHFILL1_RVT!x504360y720200
*11084 xofiller!SHFILL1_RVT!x505880y720200
*11085 xofiller!SHFILL1_RVT!x507400y720200
*11086 xofiller!SHFILL1_RVT!x508920y720200
*11087 xofiller!SHFILL1_RVT!x510440y720200
*11088 xofiller!SHFILL1_RVT!x511960y720200
*11089 xofiller!SHFILL1_RVT!x513480y720200
*11090 xofiller!SHFILL1_RVT!x515000y720200
*11091 xofiller!SHFILL1_RVT!x516520y720200
*11092 xofiller!SHFILL1_RVT!x518040y720200
*11093 xofiller!SHFILL1_RVT!x519560y720200
*11094 xofiller!SHFILL1_RVT!x521080y720200
*11095 xofiller!SHFILL1_RVT!x522600y720200
*11096 xofiller!SHFILL1_RVT!x524120y720200
*11097 xofiller!SHFILL1_RVT!x525640y720200
*11098 xofiller!SHFILL1_RVT!x527160y720200
*11099 xofiller!SHFILL1_RVT!x528680y720200
*11100 xofiller!SHFILL1_RVT!x530200y720200
*11101 xofiller!SHFILL1_RVT!x531720y720200
*11102 xofiller!SHFILL1_RVT!x533240y720200
*11103 xofiller!SHFILL1_RVT!x534760y720200
*11104 xofiller!SHFILL1_RVT!x536280y720200
*11105 xofiller!SHFILL1_RVT!x537800y720200
*11106 xofiller!SHFILL1_RVT!x539320y720200
*11107 xofiller!SHFILL1_RVT!x540840y720200
*11108 xofiller!SHFILL1_RVT!x542360y720200
*11109 xofiller!SHFILL1_RVT!x543880y720200
*11110 xofiller!SHFILL1_RVT!x545400y720200
*11111 xofiller!SHFILL1_RVT!x546920y720200
*11112 xofiller!SHFILL1_RVT!x548440y720200
*11113 xofiller!SHFILL1_RVT!x549960y720200
*11114 xofiller!SHFILL1_RVT!x551480y720200
*11115 xofiller!SHFILL1_RVT!x553000y720200
*11116 xofiller!SHFILL1_RVT!x554520y720200
*11117 xofiller!SHFILL1_RVT!x556040y720200
*11118 xofiller!SHFILL1_RVT!x557560y720200
*11119 xofiller!SHFILL1_RVT!x559080y720200
*11120 xofiller!SHFILL1_RVT!x568200y720200
*11121 xofiller!SHFILL1_RVT!x569720y720200
*11122 xofiller!SHFILL1_RVT!x571240y720200
*11123 xofiller!SHFILL1_RVT!x572760y720200
*11124 xofiller!SHFILL1_RVT!x574280y720200
*11125 xofiller!SHFILL1_RVT!x575800y720200
*11126 xofiller!SHFILL1_RVT!x577320y720200
*11127 xofiller!SHFILL1_RVT!x578840y720200
*11128 xofiller!SHFILL1_RVT!x580360y720200
*11129 xofiller!SHFILL1_RVT!x581880y720200
*11130 xofiller!SHFILL1_RVT!x583400y720200
*11131 xofiller!SHFILL1_RVT!x584920y720200
*11132 xofiller!SHFILL1_RVT!x586440y720200
*11133 xofiller!SHFILL1_RVT!x587960y720200
*11134 xofiller!SHFILL1_RVT!x589480y720200
*11135 xofiller!SHFILL1_RVT!x591000y720200
*11136 xofiller!SHFILL1_RVT!x592520y720200
*11137 xofiller!SHFILL1_RVT!x594040y720200
*11138 xofiller!SHFILL1_RVT!x595560y720200
*11139 xofiller!SHFILL1_RVT!x597080y720200
*11140 xofiller!SHFILL1_RVT!x598600y720200
*11141 xofiller!SHFILL1_RVT!x600120y720200
*11142 xofiller!SHFILL1_RVT!x601640y720200
*11143 xofiller!SHFILL1_RVT!x603160y720200
*11144 xofiller!SHFILL1_RVT!x604680y720200
*11145 xofiller!SHFILL1_RVT!x606200y720200
*11146 xofiller!SHFILL1_RVT!x607720y720200
*11147 xofiller!SHFILL1_RVT!x609240y720200
*11148 xofiller!SHFILL1_RVT!x610760y720200
*11149 xofiller!SHFILL1_RVT!x612280y720200
*11150 xofiller!SHFILL1_RVT!x613800y720200
*11151 xofiller!SHFILL1_RVT!x615320y720200
*11152 xofiller!SHFILL1_RVT!x616840y720200
*11153 xofiller!SHFILL1_RVT!x618360y720200
*11154 xofiller!SHFILL1_RVT!x619880y720200
*11155 xofiller!SHFILL1_RVT!x621400y720200
*11156 xofiller!SHFILL1_RVT!x622920y720200
*11157 xofiller!SHFILL1_RVT!x624440y720200
*11158 xofiller!SHFILL1_RVT!x625960y720200
*11159 xofiller!SHFILL1_RVT!x627480y720200
*11160 xofiller!SHFILL1_RVT!x629000y720200
*11161 xofiller!SHFILL1_RVT!x630520y720200
*11162 xofiller!SHFILL1_RVT!x632040y720200
*11163 xofiller!SHFILL1_RVT!x633560y720200
*11164 xofiller!SHFILL1_RVT!x635080y720200
*11165 xofiller!SHFILL1_RVT!x636600y720200
*11166 xofiller!SHFILL1_RVT!x638120y720200
*11167 xofiller!SHFILL1_RVT!x639640y720200
*11168 xofiller!SHFILL1_RVT!x641160y720200
*11169 xofiller!SHFILL1_RVT!x642680y720200
*11170 xofiller!SHFILL1_RVT!x644200y720200
*11171 xofiller!SHFILL1_RVT!x645720y720200
*11172 xofiller!SHFILL1_RVT!x647240y720200
*11173 xofiller!SHFILL1_RVT!x648760y720200
*11174 xofiller!SHFILL1_RVT!x650280y720200
*11175 xofiller!SHFILL1_RVT!x651800y720200
*11176 xofiller!SHFILL1_RVT!x653320y720200
*11177 xofiller!SHFILL1_RVT!x654840y720200
*11178 xofiller!SHFILL1_RVT!x656360y720200
*11179 xofiller!SHFILL1_RVT!x657880y720200
*11180 xofiller!SHFILL1_RVT!x659400y720200
*11181 xofiller!SHFILL1_RVT!x660920y720200
*11182 xofiller!SHFILL1_RVT!x662440y720200
*11183 xofiller!SHFILL1_RVT!x663960y720200
*11184 xofiller!SHFILL1_RVT!x665480y720200
*11185 xofiller!SHFILL1_RVT!x667000y720200
*11186 xofiller!SHFILL1_RVT!x668520y720200
*11187 xofiller!SHFILL1_RVT!x670040y720200
*11188 xofiller!SHFILL1_RVT!x671560y720200
*11189 xofiller!SHFILL1_RVT!x673080y720200
*11190 xofiller!SHFILL1_RVT!x674600y720200
*11191 xofiller!SHFILL1_RVT!x676120y720200
*11192 xofiller!SHFILL1_RVT!x677640y720200
*11193 xofiller!SHFILL1_RVT!x679160y720200
*11194 xofiller!SHFILL1_RVT!x680680y720200
*11195 xofiller!SHFILL1_RVT!x682200y720200
*11196 xofiller!SHFILL1_RVT!x683720y720200
*11197 xofiller!SHFILL1_RVT!x685240y720200
*11198 xofiller!SHFILL1_RVT!x686760y720200
*11199 xofiller!SHFILL1_RVT!x688280y720200
*11200 xofiller!SHFILL1_RVT!x689800y720200
*11201 xofiller!SHFILL1_RVT!x691320y720200
*11202 xofiller!SHFILL1_RVT!x692840y720200
*11203 xofiller!SHFILL1_RVT!x694360y720200
*11204 xofiller!SHFILL1_RVT!x695880y720200
*11205 xofiller!SHFILL1_RVT!x697400y720200
*11206 xofiller!SHFILL1_RVT!x698920y720200
*11207 xofiller!SHFILL1_RVT!x700440y720200
*11208 xofiller!SHFILL1_RVT!x701960y720200
*11209 xofiller!SHFILL1_RVT!x703480y720200
*11210 xofiller!SHFILL1_RVT!x705000y720200
*11211 xofiller!SHFILL1_RVT!x706520y720200
*11212 xofiller!SHFILL1_RVT!x708040y720200
*11213 xofiller!SHFILL1_RVT!x709560y720200
*11214 xofiller!SHFILL1_RVT!x711080y720200
*11215 xofiller!SHFILL1_RVT!x712600y720200
*11216 xofiller!SHFILL1_RVT!x714120y720200
*11217 xofiller!SHFILL1_RVT!x715640y720200
*11218 xofiller!SHFILL1_RVT!x717160y720200
*11219 xofiller!SHFILL1_RVT!x718680y720200
*11220 xofiller!SHFILL1_RVT!x720200y720200
*11221 xofiller!SHFILL1_RVT!x721720y720200
*11222 xofiller!SHFILL1_RVT!x723240y720200
*11223 xofiller!SHFILL1_RVT!x724760y720200
*11224 xofiller!SHFILL1_RVT!x726280y720200
*11225 xofiller!SHFILL1_RVT!x727800y720200
*11226 xofiller!SHFILL1_RVT!x729320y720200
*11227 xofiller!SHFILL1_RVT!x730840y720200
*11228 xofiller!SHFILL1_RVT!x732360y720200
*11229 xofiller!SHFILL1_RVT!x733880y720200
*11230 xofiller!SHFILL1_RVT!x735400y720200
*11231 xofiller!SHFILL1_RVT!x736920y720200
*11232 xofiller!SHFILL1_RVT!x738440y720200
*11233 xofiller!SHFILL1_RVT!x739960y720200
*11234 xofiller!SHFILL1_RVT!x741480y720200
*11235 xofiller!SHFILL1_RVT!x743000y720200
*11236 xofiller!SHFILL1_RVT!x744520y720200
*11237 copt_net_0
*11238 N3
*11239 N4
*11240 n1
*11241 n2
*11242 baud_cnt[2]
*11243 baud_cnt[1]
*11244 baud_cnt[0]
*11245 uart_rx_inst/uart_rx_deserializer_blk/clockZBUF_0
*11246 uart_rx_inst/uart_rx_stop_check_blk/clockZBUF_0
*11247 uart_tx_inst/ser_done
*11248 uart_tx_inst/ser_en
*11249 uart_tx_inst/par_bit
*11250 uart_tx_inst/ser_data
*11251 uart_rx_inst/placeHFSNET_5
*11252 uart_tx_inst/mux_sel[1]
*11253 uart_tx_inst/mux_sel[0]
*11254 uart_tx_inst/uart_tx_controller_mod/N18
*11255 uart_tx_inst/uart_tx_controller_mod/N19
*11256 uart_tx_inst/uart_tx_controller_mod/N20
*11257 uart_tx_inst/uart_tx_controller_mod/n2
*11258 uart_tx_inst/uart_tx_controller_mod/n4
*11259 uart_tx_inst/uart_tx_controller_mod/n5
*11260 uart_tx_inst/uart_tx_controller_mod/n8
*11261 uart_tx_inst/uart_tx_controller_mod/n9
*11262 uart_tx_inst/uart_tx_controller_mod/n10
*11263 uart_tx_inst/uart_tx_controller_mod/n11
*11264 uart_tx_inst/uart_tx_controller_mod/n12
*11265 uart_tx_inst/uart_tx_controller_mod/n13
*11266 uart_tx_inst/uart_tx_controller_mod/n14
*11267 uart_tx_inst/uart_tx_controller_mod/n15
*11268 uart_tx_inst/uart_tx_controller_mod/n16
*11269 uart_tx_inst/uart_tx_controller_mod/n17
*11270 uart_tx_inst/uart_tx_controller_mod/n18
*11271 uart_tx_inst/uart_tx_controller_mod/n19
*11272 uart_tx_inst/uart_tx_controller_mod/n20
*11273 uart_tx_inst/uart_tx_controller_mod/n21
*11274 uart_tx_inst/uart_tx_controller_mod/n22
*11275 uart_tx_inst/uart_tx_controller_mod/n1
*11276 uart_tx_inst/uart_tx_controller_mod/n3
*11277 uart_tx_inst/uart_tx_controller_mod/n6
*11278 uart_tx_inst/uart_tx_controller_mod/state[2]
*11279 uart_tx_inst/uart_tx_controller_mod/state[1]
*11280 uart_tx_inst/uart_tx_controller_mod/state[0]
*11281 uart_rx_inst/uart_rx_controller_blk/copt_net_1
*11282 uart_tx_inst/uart_tx_parity_bit_mod/n2
*11283 uart_tx_inst/uart_tx_parity_bit_mod/n3
*11284 uart_tx_inst/uart_tx_parity_bit_mod/n4
*11285 uart_tx_inst/uart_tx_parity_bit_mod/n5
*11286 uart_tx_inst/uart_tx_parity_bit_mod/n6
*11287 uart_tx_inst/uart_tx_serializer_mod/N2
*11288 uart_tx_inst/uart_tx_serializer_mod/N3
*11289 uart_tx_inst/uart_tx_serializer_mod/N4
*11290 uart_tx_inst/uart_tx_serializer_mod/N8
*11291 uart_tx_inst/uart_tx_serializer_mod/N12
*11292 uart_tx_inst/uart_tx_serializer_mod/N13
*11293 uart_tx_inst/uart_tx_serializer_mod/N14
*11294 uart_tx_inst/uart_tx_serializer_mod/N15
*11295 uart_tx_inst/uart_tx_serializer_mod/N17
*11296 uart_tx_inst/uart_tx_serializer_mod/n1
*11297 uart_tx_inst/uart_tx_serializer_mod/n2
*11298 uart_tx_inst/uart_tx_serializer_mod/n4
*11299 uart_tx_inst/uart_tx_serializer_mod/n5
*11300 uart_tx_inst/uart_tx_serializer_mod/n6
*11301 uart_tx_inst/uart_tx_serializer_mod/n3
*11302 uart_tx_inst/uart_tx_serializer_mod/n7
*11303 uart_tx_inst/uart_tx_serializer_mod/n8
*11304 uart_tx_inst/uart_tx_serializer_mod/n9
*11305 uart_tx_inst/uart_tx_serializer_mod/n10
*11306 uart_tx_inst/uart_tx_serializer_mod/n11
*11307 uart_tx_inst/uart_tx_serializer_mod/n12
*11308 uart_tx_inst/uart_tx_serializer_mod/n13
*11309 uart_tx_inst/uart_tx_mux4x1_mod/n3
*11310 uart_tx_inst/uart_tx_mux4x1_mod/n4
*11311 uart_tx_inst/uart_tx_mux4x1_mod/n1
*11312 uart_tx_inst/uart_tx_mux4x1_mod/n2
*11313 uart_rx_inst/placeHFSNET_3
*11314 uart_rx_inst/\*Logic1\*
*11315 uart_rx_inst/par_chk_en_top
*11316 uart_rx_inst/stp_chk_en_top
*11317 uart_rx_inst/str_chk_en_top
*11318 uart_rx_inst/deser_en_top
*11319 uart_rx_inst/cnt_zero_top
*11320 uart_rx_inst/data_valid_par_chk_top
*11321 uart_rx_inst/calc_par_bit_en_top
*11322 uart_rx_inst/uart_rx_stop_check_blk/copt_net_2
*11323 uart_rx_inst/par_err_top
*11324 uart_rx_inst/calc_par_bit_top
*11325 uart_rx_inst/str_glitch_top
*11326 uart_rx_inst/stp_err_top
*11327 uart_rx_inst/uart_rx_data_sampling_blk/placeHFSNET_5
*11328 uart_rx_inst/edge_cnt_top[2]
*11329 uart_rx_inst/edge_cnt_top[1]
*11330 uart_rx_inst/edge_cnt_top[0]
*11331 uart_rx_inst/bit_cnt_top[3]
*11332 uart_rx_inst/bit_cnt_top[2]
*11333 uart_rx_inst/bit_cnt_top[1]
*11334 uart_rx_inst/bit_cnt_top[0]
*11335 uart_rx_inst/data_valid_cnt_top[2]
*11336 uart_rx_inst/data_valid_cnt_top[1]
*11337 uart_rx_inst/data_valid_cnt_top[0]
*11338 uart_rx_inst/placeHFSNET_0
*11339 uart_rx_inst/uart_rx_counters_blk/placeHFSNET_0
*11340 uart_rx_inst/uart_rx_counters_blk/clockZBUF_1
*11341 uart_rx_inst/placeZBUF_0
*11342 uart_rx_inst/placeZBUF_3
*11343 uart_rx_inst/uart_rx_controller_blk/n10
*11344 uart_rx_inst/uart_rx_controller_blk/n11
*11345 uart_rx_inst/uart_rx_controller_blk/n12
*11346 uart_rx_inst/uart_rx_controller_blk/n21
*11347 uart_rx_inst/uart_rx_controller_blk/n22
*11348 uart_rx_inst/uart_rx_controller_blk/n23
*11349 uart_rx_inst/uart_rx_controller_blk/n24
*11350 uart_rx_inst/uart_rx_controller_blk/n25
*11351 uart_rx_inst/uart_rx_controller_blk/n27
*11352 uart_rx_inst/uart_rx_controller_blk/n28
*11353 uart_rx_inst/uart_rx_controller_blk/n29
*11354 uart_rx_inst/uart_rx_controller_blk/n30
*11355 uart_rx_inst/uart_rx_controller_blk/n32
*11356 uart_rx_inst/uart_rx_controller_blk/n33
*11357 uart_rx_inst/uart_rx_controller_blk/n34
*11358 uart_rx_inst/uart_rx_controller_blk/n35
*11359 uart_rx_inst/uart_rx_controller_blk/n36
*11360 uart_rx_inst/uart_rx_controller_blk/n37
*11361 uart_rx_inst/uart_rx_controller_blk/n38
*11362 uart_rx_inst/uart_rx_controller_blk/n39
*11363 uart_rx_inst/uart_rx_controller_blk/n40
*11364 uart_rx_inst/uart_rx_controller_blk/n41
*11365 uart_rx_inst/uart_rx_controller_blk/n42
*11366 uart_rx_inst/uart_rx_controller_blk/n43
*11367 uart_rx_inst/uart_rx_controller_blk/n44
*11368 uart_rx_inst/uart_rx_controller_blk/n45
*11369 uart_rx_inst/uart_rx_controller_blk/n46
*11370 uart_rx_inst/uart_rx_controller_blk/n47
*11371 uart_rx_inst/uart_rx_controller_blk/n48
*11372 uart_rx_inst/uart_rx_controller_blk/n49
*11373 uart_rx_inst/uart_rx_controller_blk/n1
*11374 uart_rx_inst/uart_rx_controller_blk/n2
*11375 uart_rx_inst/uart_rx_controller_blk/n7
*11376 uart_rx_inst/uart_rx_controller_blk/n8
*11377 uart_rx_inst/uart_rx_controller_blk/n9
*11378 uart_rx_inst/uart_rx_controller_blk/n13
*11379 uart_rx_inst/placeHFSNET_1
*11380 uart_rx_inst/uart_rx_controller_blk/n15
*11381 uart_rx_inst/uart_rx_controller_blk/n20
*11382 uart_rx_inst/uart_rx_controller_blk/n26
*11383 uart_rx_inst/uart_rx_controller_blk/n31
*11384 uart_rx_inst/uart_rx_controller_blk/n50
*11385 uart_rx_inst/uart_rx_controller_blk/state[2]
*11386 uart_rx_inst/uart_rx_controller_blk/state[1]
*11387 uart_rx_inst/uart_rx_controller_blk/state[0]
*11388 uart_rx_inst/uart_rx_counters_blk/n1
*11389 uart_rx_inst/uart_rx_counters_blk/n2
*11390 uart_rx_inst/uart_rx_counters_blk/n7
*11391 uart_rx_inst/uart_rx_counters_blk/n10
*11392 uart_rx_inst/uart_rx_counters_blk/n13
*11393 uart_rx_inst/uart_rx_counters_blk/n14
*11394 uart_rx_inst/uart_rx_counters_blk/n15
*11395 uart_rx_inst/uart_rx_counters_blk/n17
*11396 uart_rx_inst/uart_rx_counters_blk/n21
*11397 uart_rx_inst/uart_rx_counters_blk/n22
*11398 uart_rx_inst/uart_rx_counters_blk/n23
*11399 uart_rx_inst/uart_rx_counters_blk/n24
*11400 uart_rx_inst/uart_rx_counters_blk/n26
*11401 uart_rx_inst/uart_rx_counters_blk/n27
*11402 uart_rx_inst/uart_rx_counters_blk/n28
*11403 uart_rx_inst/uart_rx_counters_blk/n29
*11404 uart_rx_inst/uart_rx_counters_blk/n30
*11405 uart_rx_inst/uart_rx_counters_blk/n31
*11406 uart_rx_inst/uart_rx_counters_blk/n33
*11407 uart_rx_inst/uart_rx_counters_blk/n34
*11408 uart_rx_inst/uart_rx_counters_blk/n35
*11409 uart_rx_inst/uart_rx_counters_blk/n36
*11410 uart_rx_inst/uart_rx_counters_blk/n37
*11411 uart_rx_inst/uart_rx_counters_blk/n38
*11412 uart_rx_inst/uart_rx_counters_blk/n39
*11413 uart_rx_inst/uart_rx_counters_blk/n40
*11414 uart_rx_inst/uart_rx_counters_blk/n41
*11415 uart_rx_inst/uart_rx_counters_blk/n42
*11416 uart_rx_inst/uart_rx_counters_blk/n43
*11417 uart_rx_inst/uart_rx_counters_blk/n44
*11418 uart_rx_inst/uart_rx_counters_blk/n45
*11419 uart_rx_inst/uart_rx_counters_blk/n46
*11420 uart_rx_inst/uart_rx_counters_blk/n3
*11421 uart_rx_inst/uart_rx_counters_blk/n4
*11422 uart_rx_inst/uart_rx_deserializer_blk/placeHFSNET_5
*11423 uart_rx_inst/uart_rx_counters_blk/n6
*11424 uart_rx_inst/uart_rx_counters_blk/n8
*11425 uart_rx_inst/placeHFSNET_4
*11426 uart_rx_inst/uart_rx_data_sampling_blk/n1
*11427 uart_rx_inst/uart_rx_data_sampling_blk/n3
*11428 uart_rx_inst/uart_rx_data_sampling_blk/n4
*11429 uart_rx_inst/uart_rx_data_sampling_blk/n5
*11430 uart_rx_inst/uart_rx_data_sampling_blk/n9
*11431 uart_rx_inst/uart_rx_data_sampling_blk/n11
*11432 uart_rx_inst/uart_rx_data_sampling_blk/n13
*11433 uart_rx_inst/uart_rx_data_sampling_blk/n14
*11434 uart_rx_inst/uart_rx_data_sampling_blk/n16
*11435 uart_rx_inst/uart_rx_data_sampling_blk/n17
*11436 uart_rx_inst/uart_rx_data_sampling_blk/n18
*11437 uart_rx_inst/uart_rx_data_sampling_blk/n19
*11438 uart_rx_inst/uart_rx_data_sampling_blk/n2
*11439 uart_rx_inst/uart_rx_data_sampling_blk/n6
*11440 uart_rx_inst/placeHFSNET_6
*11441 uart_rx_inst/uart_rx_data_sampling_blk/n8
*11442 uart_rx_inst/uart_rx_data_sampling_blk/n10
*11443 uart_rx_inst/uart_rx_stop_check_blk/placeHFSNET_6
*11444 uart_rx_inst/uart_rx_data_sampling_blk/three_samps_data[2]
*11445 uart_rx_inst/uart_rx_data_sampling_blk/three_samps_data[1]
*11446 uart_rx_inst/uart_rx_data_sampling_blk/three_samps_data[0]
*11447 uart_rx_inst/uart_rx_parity_check_blk/n5
*11448 uart_rx_inst/uart_rx_parity_check_blk/n6
*11449 uart_rx_inst/uart_rx_parity_check_blk/n7
*11450 uart_rx_inst/uart_rx_parity_check_blk/n8
*11451 uart_rx_inst/uart_rx_parity_check_blk/n9
*11452 uart_rx_inst/uart_rx_parity_check_blk/n10
*11453 uart_rx_inst/uart_rx_parity_check_blk/n1
*11454 uart_rx_inst/placeHFSNET_7
*11455 uart_rx_inst/placeHFSNET_8
*11456 uart_rx_inst/uart_rx_parity_check_blk/n4
*11457 uart_rx_inst/uart_rx_start_check_blk/N1
*11458 uart_rx_inst/uart_rx_stop_check_blk/n2
*11459 placeZBUF_3
*11460 uart_rx_inst/uart_rx_deserializer_blk/\*Logic1\*
*11461 uart_rx_inst/uart_rx_counters_blk/copt_net_3
*11462 uart_rx_inst/placeZBUF_1
*11463 uart_tx_inst/uart_tx_serializer_mod/placeZBUF_0
*11464 uart_rx_inst/uart_rx_deserializer_blk/n16
*11465 uart_rx_inst/uart_rx_deserializer_blk/n17
*11466 uart_rx_inst/uart_rx_deserializer_blk/n18
*11467 uart_rx_inst/uart_rx_deserializer_blk/n19
*11468 uart_rx_inst/uart_rx_deserializer_blk/n20
*11469 uart_rx_inst/uart_rx_deserializer_blk/n21
*11470 uart_rx_inst/uart_rx_deserializer_blk/n22
*11471 uart_rx_inst/uart_rx_deserializer_blk/n23
*11472 uart_rx_inst/uart_rx_deserializer_blk/n24
*11473 uart_rx_inst/uart_rx_deserializer_blk/n25
*11474 uart_rx_inst/uart_rx_deserializer_blk/n26
*11475 uart_rx_inst/uart_rx_deserializer_blk/n27
*11476 uart_rx_inst/uart_rx_deserializer_blk/n28
*11477 uart_rx_inst/uart_rx_deserializer_blk/n29
*11478 uart_rx_inst/uart_rx_deserializer_blk/n30
*11479 uart_rx_inst/uart_rx_deserializer_blk/n31
*11480 uart_rx_inst/uart_rx_deserializer_blk/n32
*11481 uart_rx_inst/uart_rx_deserializer_blk/n33
*11482 uart_rx_inst/uart_rx_deserializer_blk/n34
*11483 uart_rx_inst/uart_rx_deserializer_blk/n35
*11484 uart_rx_inst/uart_rx_deserializer_blk/n36
*11485 uart_rx_inst/uart_rx_deserializer_blk/n37
*11486 uart_rx_inst/uart_rx_deserializer_blk/n38
*11487 uart_rx_inst/clockZBUF_1
*11488 uart_rx_inst/uart_rx_counters_blk/copt_net_4
*11489 uart_rx_inst/uart_rx_deserializer_blk/n6
*11490 uart_rx_inst/uart_rx_deserializer_blk/n7
*11491 uart_rx_inst/uart_rx_deserializer_blk/n8
*11492 uart_rx_inst/uart_rx_deserializer_blk/n9
*11493 uart_rx_inst/uart_rx_deserializer_blk/n10
*11494 uart_rx_inst/uart_rx_deserializer_blk/n11
*11495 uart_rx_inst/uart_rx_deserializer_blk/n12
*11496 uart_rx_inst/uart_rx_deserializer_blk/n13
*11497 placeZBUF_0
*11498 uart_rx_inst/uart_rx_deserializer_blk/n41
*11499 uart_rx_inst/uart_rx_deserializer_blk/p_data_temp[7]
*11500 uart_rx_inst/uart_rx_deserializer_blk/p_data_temp[6]
*11501 uart_rx_inst/uart_rx_deserializer_blk/p_data_temp[5]
*11502 uart_rx_inst/uart_rx_deserializer_blk/p_data_temp[4]
*11503 uart_rx_inst/uart_rx_deserializer_blk/p_data_temp[3]
*11504 uart_rx_inst/uart_rx_deserializer_blk/p_data_temp[2]
*11505 uart_rx_inst/uart_rx_deserializer_blk/p_data_temp[1]
*11506 uart_rx_inst/uart_rx_deserializer_blk/p_data_temp[0]
*11507 uart_rx_inst/uart_rx_counters_blk/copt_net_5
*11508 uart_rx_inst/uart_rx_counters_blk/copt_net_6
*11509 uart_rx_inst/uart_rx_counters_blk/copt_net_7
*11510 uart_rx_inst/uart_rx_counters_blk/copt_net_8
*11511 uart_rx_inst/uart_rx_counters_blk/copt_net_9
*11512 uart_rx_inst/uart_rx_deserializer_blk/copt_net_10
*11513 uart_rx_inst/uart_rx_deserializer_blk/clockZBUF_1
*11514 uart_rx_inst/placeZBUF_7
*11515 uart_rx_inst/uart_rx_deserializer_blk/copt_net_11
*11516 uart_rx_inst/uart_rx_deserializer_blk/copt_net_12
*11517 uart_rx_inst/uart_rx_deserializer_blk/copt_net_13
*11518 uart_rx_inst/uart_rx_deserializer_blk/copt_net_14
*11519 uart_rx_inst/uart_rx_deserializer_blk/copt_net_15
*11520 uart_rx_inst/uart_rx_deserializer_blk/copt_net_16
*11521 uart_rx_inst/uart_rx_deserializer_blk/copt_net_17
*11522 uart_rx_inst/uart_rx_data_sampling_blk/copt_net_18
*11523 copt_net_19
*11524 uart_rx_inst/uart_rx_data_sampling_blk/copt_net_20
*11525 uart_rx_inst/uart_rx_data_sampling_blk/copt_net_21
*11526 uart_rx_inst/uart_rx_start_check_blk/copt_net_22
*11527 uart_rx_inst/uart_rx_counters_blk/copt_net_23
*11528 uart_rx_inst/uart_rx_parity_check_blk/copt_net_24
*11529 uart_rx_inst/uart_rx_controller_blk/copt_net_25
*11530 uart_rx_inst/uart_rx_counters_blk/copt_net_27
*11531 uart_rx_inst/uart_rx_counters_blk/copt_net_28
*11532 uart_rx_inst/uart_rx_counters_blk/copt_net_30
*11533 uart_rx_inst/uart_rx_counters_blk/copt_net_31
*11534 uart_rx_inst/uart_rx_data_sampling_blk/copt_net_32
*11535 uart_rx_inst/uart_rx_controller_blk/copt_net_33
*11536 uart_rx_inst/uart_rx_counters_blk/copt_net_34
*11537 uart_rx_inst/uart_rx_controller_blk/ropt_net_35
*11538 uart_rx_inst/uart_rx_parity_check_blk/ropt_net_36
*11539 uart_rx_inst/uart_rx_counters_blk/ropt_net_37
*11540 uart_rx_inst/uart_rx_data_sampling_blk/ropt_net_38
*11541 uart_rx_inst/uart_rx_counters_blk/ropt_net_39
*11542 uart_rx_inst/uart_rx_controller_blk/ropt_net_40
*11543 uart_rx_inst/uart_rx_counters_blk/ropt_net_41

*PORTS
*1 I *C 81.140 0.143
*2 I *C 68.828 0.143
*3 I *C 56.516 0.143
*4 I *C 44.052 0.143
*5 I *C 31.740 0.143
*6 I *C 19.428 0.143
*7 I *C 7.116 0.143
*8 I *C 87.961 77.948
*9 I *C 87.961 65.788
*10 I *C 87.961 53.932
*11 I *C 87.961 42.076
*12 I *C 87.961 29.916
*13 I *C 87.961 18.060
*14 O *C 87.961 5.900
*15 O *C 81.140 87.049
*16 I *C 68.828 87.049
*17 O *C 56.516 87.049
*18 O *C 44.052 87.049
*19 O *C 31.740 87.049
*20 O *C 19.428 87.049
*21 O *C 7.116 87.049
*22 O *C 0.143 77.948
*23 O *C 0.143 65.788
*24 O *C 0.143 53.932
*25 O *C 0.143 42.076
*26 O *C 0.143 29.916
*27 O *C 0.143 18.060
*28 O *C 0.143 5.900
*29 I *C 44.052 43.596
*30 I *C 44.052 43.596
*31 I *C 44.052 43.596
*32 I *C 44.052 43.596

*D_NET *11237 0.5238783 //LENGTH 5.337 DR

*CONN
*I *190:Y O *L 0.000 *C 63.660 22.164
*I *33:D I *L 0.547 *C 60.924 21.192
*N *11237:2 *C 60.924 21.192
*N *11237:3 *C 60.924 21.344
*N *11237:4 *C 60.924 21.344
*N *11237:5 *C 64.268 21.344
*N *11237:6 *C 64.268 21.388
*N *11237:7 *C 64.208 22.164
*N *11237:8 *C 64.163 22.164

*CAP
0 *190:Y 0.0412859
1 *33:D 0.001
2 *11237:2 0.0156467
3 *11237:3 0.01469287
4 *11237:4 0.1694868
5 *11237:5 0.1655398
6 *11237:6 0.03433413
7 *11237:7 0.04683242
8 *11237:8 0.03505971

*RES
0 *190:Y *11237:8 1.006
1 *11237:8 *11237:7 0.5
2 *11237:7 *11237:6 1.386607
3 *11237:6 *11237:5 0.25
4 *11237:5 *11237:4 5.971429
5 *11237:3 *11237:2 0.1916667
6 *11237:4 *11237:3 0.25
7 *11237:2 *33:D 0.5

*END

*D_NET *1 19.54876 //LENGTH 243.173 DR

*CONN
*P *1 I *L 0.000 *C 81.140 0.184
*I *34:CLK I *L 0.702 *C 66.536 16.996
*I *33:CLK I *L 0.702 *C 61.228 20.374
*I *221:CLK I *L 0.702 *C 45.176 23.658
*I *107:CLK I *L 0.705 *C 45.420 33.387
*I *108:CLK I *L 0.705 *C 46.332 36.744
*I *106:CLK I *L 0.705 *C 46.624 40.404
*I *161:CLK I *L 0.702 *C 31.132 46.722
*I *159:CLK I *L 0.702 *C 21.364 43.814
*I *245:CLK I *L 0.702 *C 20.704 50.410
*I *244:CLK I *L 0.702 *C 20.096 56.754
*I *243:CLK I *L 0.702 *C 19.640 60.442
*I *242:CLK I *L 0.702 *C 19.944 63.812
*I *160:CLK I *L 0.702 *C 26.632 46.722
*I *233:CLK I *L 0.702 *C 46.088 46.722
*I *198:CLK I *L 0.702 *C 46.472 53.780
*I *200:CLK I *L 0.702 *C 45.936 60.442
*I *201:CLK I *L 0.702 *C 42.592 63.442
*I *238:CLK I *L 0.702 *C 39.584 63.786
*I *240:CLK I *L 0.702 *C 30.736 66.786
*I *241:CLK I *L 0.702 *C 26.176 66.786
*I *239:CLK I *L 0.702 *C 35.296 63.786
*I *199:CLK I *L 0.702 *C 46.848 63.442
*I *168:CLK I *L 0.702 *C 33.016 23.314
*I *165:CLK I *L 0.702 *C 30.128 26.658
*I *167:CLK I *L 0.702 *C 26.176 23.314
*I *166:CLK I *L 0.702 *C 24.048 26.658
*I *164:CLK I *L 0.702 *C 23.440 30.002
*I *163:CLK I *L 0.702 *C 22.528 33.690
*I *162:CLK I *L 0.702 *C 21.768 37.126
*I *235:CLK I *L 0.702 *C 40.312 23.658
*I *37:CLK I *L 0.702 *C 65.788 26.658
*N *1:32 *C 65.728 26.658
*N *1:33 *C 65.728 26.658
*N *1:34 *C 65.788 25.764
*N *1:35 *C 65.788 25.720
*N *1:36 *C 65.728 25.660
*N *1:37 *C 65.728 25.660
*N *1:38 *C 40.312 23.658
*N *1:39 *C 40.252 23.515
*N *1:40 *C 40.252 23.472
*N *1:41 *C 39.948 23.532
*N *1:42 *C 21.768 37.126
*N *1:43 *C 21.708 37.152
*N *1:44 *C 21.708 37.152
*N *1:45 *C 22.517 37.212
*N *1:46 *C 22.560 37.212
*N *1:47 *C 22.528 33.690
*N *1:48 *C 22.468 33.624
*N *1:49 *C 22.468 33.624
*N *1:50 *C 22.560 33.564
*N *1:51 *C 22.620 33.564
*N *1:52 *C 22.924 33.564
*N *1:53 *C 22.864 29.916
*N *1:54 *C 22.908 29.916
*N *1:55 *C 23.440 30.002
*N *1:56 *C 23.380 29.976
*N *1:57 *C 23.380 29.976
*N *1:58 *C 23.550 29.916
*N *1:59 *C 23.592 29.916
*N *1:60 *C 23.472 26.572
*N *1:61 *C 23.516 26.572
*N *1:62 *C 24.048 26.658
*N *1:63 *C 23.988 26.632
*N *1:64 *C 23.988 26.632
*N *1:65 *C 24.158 26.572
*N *1:66 *C 24.200 26.572
*N *1:67 *C 24.140 25.660
*N *1:68 *C 24.444 25.660
*N *1:69 *C 24.384 23.228
*N *1:70 *C 24.428 23.228
*N *1:71 *C 26.176 23.314
*N *1:72 *C 26.116 23.168
*N *1:73 *C 26.116 23.168
*N *1:74 *C 30.128 26.658
*N *1:75 *C 30.068 25.764
*N *1:76 *C 30.068 25.720
*N *1:77 *C 30.160 25.660
*N *1:78 *C 30.160 25.660
*N *1:79 *C 30.160 23.228
*N *1:80 *C 30.160 23.228
*N *1:81 *C 33.016 23.314
*N *1:82 *C 32.956 23.168
*N *1:83 *C 32.956 23.168
*N *1:84 *C 39.948 23.229
*N *1:85 *C 39.888 23.228
*N *1:86 *C 39.948 23.168
*N *1:87 *C 39.948 23.168
*N *1:88 *C 46.848 63.442
*N *1:89 *C 46.788 63.296
*N *1:90 *C 46.788 63.296
*N *1:91 *C 35.296 63.786
*N *1:92 *C 35.236 64.285
*N *1:93 *C 35.236 64.328
*N *1:94 *C 26.176 66.786
*N *1:95 *C 26.116 66.640
*N *1:96 *C 26.116 66.640
*N *1:97 *C 30.736 66.786
*N *1:98 *C 30.676 66.640
*N *1:99 *C 30.676 66.640
*N *1:100 *C 35.285 66.700
*N *1:101 *C 35.328 66.700
*N *1:102 *C 35.328 64.268
*N *1:103 *C 35.372 64.268
*N *1:104 *C 39.644 64.268
*N *1:105 *C 39.584 63.786
*N *1:106 *C 39.584 63.964
*N *1:107 *C 39.584 63.964
*N *1:108 *C 39.584 63.964
*N *1:109 *C 39.584 63.356
*N *1:110 *C 39.628 63.356
*N *1:111 *C 42.592 63.442
*N *1:112 *C 42.532 63.296
*N *1:113 *C 42.532 63.296
*N *1:114 *C 45.968 63.356
*N *1:115 *C 45.968 63.356
*N *1:116 *C 45.936 60.442
*N *1:117 *C 45.876 60.637
*N *1:118 *C 45.876 60.680
*N *1:119 *C 45.968 60.620
*N *1:120 *C 45.968 60.620
*N *1:121 *C 46.424 53.780
*N *1:122 *C 46.424 53.780
*N *1:123 *C 46.484 53.949
*N *1:124 *C 46.484 53.992
*N *1:125 *C 46.012 53.932
*N *1:126 *C 45.968 53.932
*N *1:127 *C 46.088 46.722
*N *1:128 *C 46.028 46.576
*N *1:129 *C 46.028 46.576
*N *1:130 *C 45.968 46.636
*N *1:131 *C 45.968 46.636
*N *1:132 *C 46.028 45.116
*N *1:133 *C 26.632 46.722
*N *1:134 *C 26.572 45.708
*N *1:135 *C 26.572 45.633
*N *1:136 *C 19.944 63.812
*N *1:137 *C 19.884 63.752
*N *1:138 *C 19.884 63.752
*N *1:139 *C 19.564 63.812
*N *1:140 *C 19.520 63.812
*N *1:141 *C 19.640 60.442
*N *1:142 *C 19.580 60.299
*N *1:143 *C 19.580 60.256
*N *1:144 *C 19.520 60.316
*N *1:145 *C 19.520 60.316
*N *1:146 *C 19.520 56.668
*N *1:147 *C 19.564 56.668
*N *1:148 *C 20.096 56.754
*N *1:149 *C 20.036 56.608
*N *1:150 *C 20.036 56.608
*N *1:151 *C 20.693 56.668
*N *1:152 *C 20.736 56.668
*N *1:153 *C 20.704 50.410
*N *1:154 *C 20.644 50.605
*N *1:155 *C 20.644 50.648
*N *1:156 *C 20.736 50.588
*N *1:157 *C 20.736 50.588
*N *1:158 *C 20.736 45.116
*N *1:159 *C 20.780 45.116
*N *1:160 *C 21.252 43.752
*N *1:161 *C 21.252 43.874
*N *1:162 *C 21.252 43.815
*N *1:163 *C 21.252 43.840
*N *1:164 *C 21.708 43.840
*N *1:165 *C 21.708 43.884
*N *1:166 *C 21.708 45.013
*N *1:167 *C 21.708 45.056
*N *1:168 *C 26.572 45.117
*N *1:169 *C 26.512 45.116
*N *1:170 *C 26.572 45.056
*N *1:171 *C 26.572 45.056
*N *1:172 *C 31.072 46.722
*N *1:173 *C 31.072 46.722
*N *1:174 *C 31.132 45.708
*N *1:175 *C 31.132 45.664
*N *1:176 *C 31.072 45.724
*N *1:177 *C 31.072 45.724
*N *1:178 *C 31.132 45.100
*N *1:179 *C 31.132 45.056
*N *1:180 *C 45.724 45.056
*N *1:181 *C 45.725 45.116
*N *1:182 *C 46.576 40.404
*N *1:183 *C 46.576 40.404
*N *1:184 *C 46.636 40.514
*N *1:185 *C 46.636 40.556
*N *1:186 *C 45.708 40.556
*N *1:187 *C 45.664 40.556
*N *1:188 *C 46.332 36.671
*N *1:189 *C 46.332 36.671
*N *1:190 *C 46.332 36.544
*N *1:191 *C 46.332 36.544
*N *1:192 *C 45.708 36.604
*N *1:193 *C 45.724 36.618
*N *1:194 *C 45.420 36.604
*N *1:195 *C 45.420 33.320
*N *1:196 *C 45.420 33.320
*N *1:197 *C 45.360 33.260
*N *1:198 *C 45.360 33.260
*N *1:199 *C 45.176 23.658
*N *1:200 *C 45.116 23.776
*N *1:201 *C 45.116 23.776
*N *1:202 *C 45.317 23.836
*N *1:203 *C 45.360 23.836
*N *1:204 *C 45.420 23.212
*N *1:205 *C 45.420 23.168
*N *1:206 *C 46.636 23.168
*N *1:207 *C 46.636 23.125
*N *1:208 *C 46.576 21.708
*N *1:209 *C 46.620 21.708
*N *1:210 *C 61.228 20.418
*N *1:211 *C 61.228 21.605
*N *1:212 *C 61.228 21.648
*N *1:213 *C 65.685 21.708
*N *1:214 *C 65.728 21.708
*N *1:215 *C 65.728 17.148
*N *1:216 *C 65.772 17.148
*N *1:217 *C 66.488 16.996
*N *1:218 *C 66.488 16.996
*N *1:219 *C 66.548 17.165
*N *1:220 *C 66.548 17.208
*N *1:221 *C 78.399 17.208
*N *1:222 *C 78.400 17.148
*N *1:223 *C 80.885 17.148
*N *1:224 *C 80.928 17.148
*N *1:225 *C 80.928 0.124
*N *1:226 *C 80.971 0.124
*N *1:227 *C 81.140 0.184

*CAP
0 *1 0.001
1 *34:CLK 0.0201192
2 *33:CLK 0.001
3 *221:CLK 0.001
4 *107:CLK 0.001
5 *108:CLK 0.01496955
6 *106:CLK 0.02190973
7 *161:CLK 0.0201313
8 *159:CLK 0.01583416
9 *245:CLK 0.001
10 *244:CLK 0.001
11 *243:CLK 0.001
12 *242:CLK 0.001
13 *160:CLK 0.001
14 *233:CLK 0.001
15 *198:CLK 0.02432405
16 *200:CLK 0.001
17 *201:CLK 0.001
18 *238:CLK 0.001
19 *240:CLK 0.001
20 *241:CLK 0.001
21 *239:CLK 0.001
22 *199:CLK 0.001
23 *168:CLK 0.001
24 *165:CLK 0.001
25 *167:CLK 0.001
26 *166:CLK 0.001
27 *164:CLK 0.001
28 *163:CLK 0.001
29 *162:CLK 0.001
30 *235:CLK 0.001
31 *37:CLK 0.02426689
32 *1:32 0.0180407
33 *1:33 0.07938606
34 *1:34 0.0607209
35 *1:35 0.01545216
36 *1:36 0.008810801
37 *1:37 0.166649
38 *1:38 0.02446267
39 *1:39 0.009429199
40 *1:40 0.01793179
41 *1:41 0.02693749
42 *1:42 0.01717815
43 *1:43 0.01103786
44 *1:44 0.04336784
45 *1:45 0.03215453
46 *1:46 0.1647577
47 *1:47 0.01884178
48 *1:48 0.01094846
49 *1:49 0.0144685
50 *1:50 0.008571458
51 *1:51 0.1730316
52 *1:52 0.1668862
53 *1:53 0.1523858
54 *1:54 0.02077648
55 *1:55 0.01674562
56 *1:56 0.00963833
57 *1:57 0.04775715
58 *1:58 0.008556162
59 *1:59 0.1395745
60 *1:60 0.1394484
61 *1:61 0.01829641
62 *1:62 0.01841143
63 *1:63 0.009741331
64 *1:64 0.04442612
65 *1:65 0.008173764
66 *1:66 0.0454612
67 *1:67 0.05592407
68 *1:68 0.1167705
69 *1:69 0.1045794
70 *1:70 0.06161659
71 *1:71 0.01886448
72 *1:72 0.01100409
73 *1:73 0.2212203
74 *1:74 0.05676806
75 *1:75 0.04222964
76 *1:76 0.01457083
77 *1:77 0.008393303
78 *1:78 0.1109091
79 *1:79 0.1112092
80 *1:80 0.261048
81 *1:81 0.01783976
82 *1:82 0.01023647
83 *1:83 0.3949063
84 *1:84 0.279674
85 *1:85 0.01405793
86 *1:86 0.00923955
87 *1:87 0.2155585
88 *1:88 0.01818165
89 *1:89 0.01061882
90 *1:90 0.03567586
91 *1:91 0.03968757
92 *1:92 0.02488622
93 *1:93 0.01383102
94 *1:94 0.01830305
95 *1:95 0.01103653
96 *1:96 0.1959462
97 *1:97 0.02196399
98 *1:98 0.01207141
99 *1:99 0.3887143
100 *1:100 0.1855146
101 *1:101 0.1103675
102 *1:102 0.1099788
103 *1:103 0.1875468
104 *1:104 0.1985559
105 *1:105 0.02073139
106 *1:106 0.01808468
107 *1:107 0.004718254
108 *1:108 0.03133674
109 *1:109 0.03105662
110 *1:110 0.1100077
111 *1:111 0.01864625
112 *1:112 0.01062633
113 *1:113 0.2450079
114 *1:114 0.1554918
115 *1:115 0.1178175
116 *1:116 0.0255604
117 *1:117 0.01050744
118 *1:118 0.01531801
119 *1:119 0.008309132
120 *1:120 0.3753722
121 *1:121 0.01809786
122 *1:122 0.01984591
123 *1:123 0.009319878
124 *1:124 0.03766667
125 *1:125 0.0226465
126 *1:126 0.5499566
127 *1:127 0.01596723
128 *1:128 0.009459355
129 *1:129 0.01286018
130 *1:130 0.007617803
131 *1:131 0.3525316
132 *1:132 0.0762308
133 *1:133 0.06902043
134 *1:134 0.05420956
135 *1:135 0.0182366
136 *1:136 0.01550148
137 *1:137 0.009067583
138 *1:138 0.02301867
139 *1:139 0.01290258
140 *1:140 0.1402828
141 *1:141 0.02261901
142 *1:142 0.008352532
143 *1:143 0.01250758
144 *1:144 0.007984801
145 *1:145 0.2778701
146 *1:146 0.142244
147 *1:147 0.01651623
148 *1:148 0.01651977
149 *1:149 0.009485544
150 *1:150 0.05707299
151 *1:151 0.02336701
152 *1:152 0.2320274
153 *1:153 0.0344828
154 *1:154 0.01649764
155 *1:155 0.01102694
156 *1:156 0.006918892
157 *1:157 0.439994
158 *1:158 0.214321
159 *1:159 0.04255943
160 *1:160 0.009642086
161 *1:161 0.03082719
162 *1:162 0.001
163 *1:163 0.03193375
164 *1:164 0.03193375
165 *1:165 0.06160223
166 *1:166 0.06160223
167 *1:167 0.27101
168 *1:168 0.2315468
169 *1:169 0.01528979
170 *1:170 0.01016418
171 *1:171 0.1895069
172 *1:172 0.01390511
173 *1:173 0.09042992
174 *1:174 0.07251839
175 *1:175 0.01562696
176 *1:176 0.00959734
177 *1:177 0.04217211
178 *1:178 0.0299206
179 *1:179 0.7725728
180 *1:180 0.5863551
181 *1:181 0.1983552
182 *1:182 0.01568354
183 *1:183 0.01869786
184 *1:184 0.008964285
185 *1:185 0.05403073
186 *1:186 0.04212398
187 *1:187 0.3590323
188 *1:188 0.008743351
189 *1:189 0.02040991
190 *1:190 0.014309
191 *1:191 0.03899299
192 *1:192 0.02692417
193 *1:193 0.1708155
194 *1:194 0.1504386
195 *1:195 0.001
196 *1:196 0.01388323
197 *1:197 0.008507893
198 *1:198 0.5163179
199 *1:199 0.01578544
200 *1:200 0.008810229
201 *1:201 0.02318201
202 *1:202 0.01075948
203 *1:203 0.4145972
204 *1:204 0.02540459
205 *1:205 0.2624918
206 *1:206 0.05173946
207 *1:207 0.05933692
208 *1:208 0.0714746
209 *1:209 0.605603
210 *1:210 0.07748283
211 *1:211 0.07562385
212 *1:212 0.8127853
213 *1:213 0.1858741
214 *1:214 0.3503876
215 *1:215 0.1897522
216 *1:216 0.02784181
217 *1:217 0.013893
218 *1:218 0.01547745
219 *1:219 0.007864704
220 *1:220 0.446332
221 *1:221 0.4078808
222 *1:222 0.08865376
223 *1:223 0.08153874
224 *1:224 0.517432
225 *1:225 0.5144548
226 *1:226 0.005609144
227 *1:227 0.014391

*RES
0 *1 *1:227 0.25
1 *1:125 *1:124 0.8437501
2 *1:126 *1:125 0.25
3 *1:126 *1:120 11.94286
4 *1:123 *1:122 0.3008929
5 *1:124 *1:123 0.25
6 *1:121 *198:CLK 0.1036364
7 *1:122 *1:121 0.5
8 *1:223 *1:222 4.436607
9 *1:224 *1:223 0.25
10 *1:226 *1:225 0.25
11 *1:225 *1:224 30.4
12 *1:227 *1:226 0.2825
13 *1:186 *1:185 1.658036
14 *1:187 *1:186 0.25
15 *1:187 *1:181 8.142858
16 *1:184 *1:183 0.1825
17 *1:185 *1:184 0.25
18 *1:182 *106:CLK 0.08181817
19 *1:183 *1:182 0.5
20 *1:54 *1:53 0.25
21 *1:53 *1:52 6.514286
22 *1:58 *1:57 0.2825
23 *1:59 *1:58 0.25
24 *1:61 *1:60 0.25
25 *1:60 *1:59 5.971429
26 *1:65 *1:64 0.2825
27 *1:66 *1:65 0.25
28 *1:70 *1:69 0.25
29 *1:69 *1:68 4.342858
30 *1:110 *1:109 0.25
31 *1:109 *1:108 1.15
32 *1:107 *1:106 0.25
33 *1:107 *1:104 0.5428572
34 *1:108 *1:107 0.25
35 *1:147 *1:146 0.25
36 *1:146 *1:145 6.514286
37 *1:100 *1:99 8.229465
38 *1:101 *1:100 0.25
39 *1:103 *1:102 0.25
40 *1:103 *1:93 0.2258334
41 *1:102 *1:101 4.342857
42 *1:211 *1:210 2.119643
43 *1:212 *1:211 0.25
44 *1:212 *1:209 26.08661
45 *1:210 *33:CLK 0.5
46 *1:204 *1:203 1.115179
47 *1:205 *1:204 0.25
48 *1:205 *1:87 9.771429
49 *1:114 *1:113 6.135715
50 *1:114 *1:90 1.464286
51 *1:115 *1:114 0.25
52 *1:159 *1:158 0.25
53 *1:158 *1:157 9.771429
54 *1:151 *1:150 1.364286
55 *1:152 *1:151 0.25
56 *1:181 *1:180 0.25
57 *1:181 *1:132 0.5410715
58 *1:180 *1:179 26.05714
59 *1:216 *1:215 0.25
60 *1:215 *1:214 8.142858
61 *1:213 *1:212 7.958036
62 *1:214 *1:213 0.25
63 *1:214 *1:37 7.057143
64 *1:84 *1:83 12.57857
65 *1:84 *1:41 0.5410715
66 *1:85 *1:84 0.25
67 *1:86 *1:85 0.1
68 *1:87 *1:86 0.25
69 *1:156 *1:155 0.26
70 *1:157 *1:156 0.25
71 *1:157 *1:152 10.85714
72 *1:154 *1:153 0.3473215
73 *1:155 *1:154 0.25
74 *1:153 *245:CLK 0.5
75 *1:166 *1:165 2.016072
76 *1:167 *1:166 0.25
77 *1:167 *1:159 1.658036
78 *1:165 *1:164 0.25
79 *1:164 *1:163 0.8142858
80 *1:162 *1:161 0.5
81 *1:162 *1:160 0.1041667
82 *1:163 *1:162 0.25
83 *1:161 *159:CLK 0.1866667
84 *1:144 *1:143 0.1
85 *1:145 *1:144 0.25
86 *1:145 *1:140 6.242857
87 *1:142 *1:141 0.2391667
88 *1:143 *1:142 0.25
89 *1:141 *243:CLK 0.5
90 *1:149 *1:148 0.1916667
91 *1:150 *1:149 0.25
92 *1:150 *1:147 0.84375
93 *1:148 *244:CLK 0.5
94 *1:95 *1:94 0.1916667
95 *1:96 *1:95 0.25
96 *1:94 *241:CLK 0.5
97 *1:98 *1:97 0.1916667
98 *1:99 *1:98 0.25
99 *1:99 *1:96 8.142858
100 *1:97 *240:CLK 0.5
101 *1:92 *1:91 0.8901786
102 *1:93 *1:92 0.25
103 *1:91 *239:CLK 0.5
104 *1:39 *1:38 0.2391667
105 *1:40 *1:39 0.25
106 *1:38 *235:CLK 0.5
107 *1:130 *1:129 0.1
108 *1:131 *1:130 0.25
109 *1:131 *1:126 13.02857
110 *1:128 *1:127 0.1916667
111 *1:129 *1:128 0.25
112 *1:127 *233:CLK 0.5
113 *1:36 *1:35 0.1
114 *1:37 *1:36 0.25
115 *1:34 *1:33 1.597322
116 *1:35 *1:34 0.25
117 *1:32 *37:CLK 0.1916667
118 *1:33 *1:32 0.5
119 *1:106 *1:105 0.3821429
120 *1:105 *238:CLK 0.5
121 *1:119 *1:118 0.1533334
122 *1:120 *1:119 0.25
123 *1:120 *1:115 4.885715
124 *1:117 *1:116 0.3473215
125 *1:118 *1:117 0.25
126 *1:116 *200:CLK 0.5
127 *1:89 *1:88 0.1916667
128 *1:90 *1:89 0.25
129 *1:88 *199:CLK 0.5
130 *1:202 *1:201 0.3580357
131 *1:203 *1:202 0.25
132 *1:203 *1:198 16.82857
133 *1:200 *1:199 0.1916667
134 *1:201 *1:200 0.25
135 *1:199 *221:CLK 0.5
136 *1:112 *1:111 0.1916667
137 *1:113 *1:112 0.25
138 *1:113 *1:110 5.186607
139 *1:111 *201:CLK 0.5
140 *1:82 *1:81 0.1916667
141 *1:83 *1:82 0.25
142 *1:83 *1:80 4.992857
143 *1:81 *168:CLK 0.5
144 *1:63 *1:62 0.04333334
145 *1:64 *1:63 0.25
146 *1:64 *1:61 0.8651786
147 *1:62 *166:CLK 0.5
148 *1:80 *1:79 0.25
149 *1:80 *1:73 7.221429
150 *1:79 *1:78 4.342858
151 *1:77 *1:76 0.1533334
152 *1:78 *1:77 0.25
153 *1:75 *1:74 1.597322
154 *1:76 *1:75 0.25
155 *1:74 *165:CLK 0.5
156 *1:56 *1:55 0.04333334
157 *1:57 *1:56 0.25
158 *1:57 *1:54 0.84375
159 *1:55 *164:CLK 0.5
160 *1:72 *1:71 0.1916667
161 *1:73 *1:72 0.25
162 *1:73 *1:70 3.015179
163 *1:71 *167:CLK 0.5
164 *1:50 *1:49 0.1533334
165 *1:51 *1:50 0.25
166 *1:51 *1:46 6.514286
167 *1:48 *1:47 0.15
168 *1:49 *1:48 0.25
169 *1:47 *163:CLK 0.5
170 *1:168 *1:167 8.685715
171 *1:168 *1:135 0.9214286
172 *1:169 *1:168 0.25
173 *1:170 *1:169 0.1
174 *1:171 *1:170 0.25
175 *1:134 *1:133 1.811607
176 *1:135 *1:134 0.25
177 *1:133 *160:CLK 0.5
178 *1:139 *1:138 0.5723215
179 *1:140 *1:139 0.25
180 *1:137 *1:136 0.1
181 *1:138 *1:137 0.25
182 *1:136 *242:CLK 0.5
183 *1:178 *1:177 1.115179
184 *1:179 *1:178 0.25
185 *1:179 *1:171 8.142858
186 *1:176 *1:175 0.1
187 *1:177 *1:176 0.25
188 *1:174 *1:173 1.811607
189 *1:175 *1:174 0.25
190 *1:172 *161:CLK 0.1916667
191 *1:173 *1:172 0.5
192 *1:45 *1:44 1.44375
193 *1:46 *1:45 0.25
194 *1:43 *1:42 0.04333334
195 *1:44 *1:43 0.25
196 *1:42 *162:CLK 0.5
197 *1:192 *1:191 1.115179
198 *1:193 *1:192 0.25
199 *1:193 *1:187 7.033037
200 *1:190 *1:189 0.1916667
201 *1:191 *1:190 0.25
202 *1:188 *108:CLK 0.1916667
203 *1:189 *1:188 0.5
204 *1:197 *1:196 0.1
205 *1:198 *1:197 0.25
206 *1:198 *1:194 5.971429
207 *1:195 *107:CLK 0.5
208 *1:196 *1:195 0.25
209 *1:219 *1:218 0.3008929
210 *1:220 *1:219 0.25
211 *1:220 *1:216 1.386607
212 *1:217 *34:CLK 0.08181819
213 *1:218 *1:217 0.5
214 *1:207 *1:206 0.25
215 *1:206 *1:205 2.171429
216 *1:209 *1:208 0.25
217 *1:208 *1:207 2.529464
218 *1:104 *1:103 7.629465
219 *1:41 *1:40 0.5428572
220 *1:52 *1:51 0.5428572
221 *1:67 *1:66 1.628572
222 *1:68 *1:67 0.5428572
223 *1:194 *1:193 0.5428572
224 *1:132 *1:131 2.714286
225 *1:222 *1:221 0.01
226 *1:221 *1:220 21.16429

*END

*D_NET *2 1.025471 //LENGTH 15.137 DR

*CONN
*P *2 I *L 0.000 *C 68.828 0.258
*I *219:A I *L 0.738 *C 68.372 14.400
*N *2:2 *C 68.372 14.230
*N *2:3 *C 68.372 14.352
*N *2:4 *C 68.372 14.352
*N *2:5 *C 68.372 14.352
*N *2:6 *C 68.828 14.352
*N *2:7 *C 68.828 14.309

*CAP
0 *2 0.4802166
1 *219:A 0.01422084
2 *2:2 0.00941381
3 *2:3 0.007994641
4 *2:4 0.0019636
5 *2:5 0.01924153
6 *2:6 0.01931967
7 *2:7 0.4731

*RES
0 *2 *2:7 25.25357
1 *2:3 *219:A 0.08181819
2 *2:4 *2:3 0.5
3 *2:4 *2:2 0.2033333
4 *2:5 *2:4 0.25
5 *2:7 *2:6 0.25
6 *2:6 *2:5 0.8142857

*END

*D_NET *3 2.355369 //LENGTH 31.690 DR

*CONN
*P *3 I *L 0.000 *C 56.516 0.258
*I *72:A1 I *L 1.127 *C 59.952 26.724
*I *91:A1 I *L 0.513 *C 56.073 25.964
*N *3:3 *C 56.120 25.964
*N *3:4 *C 56.120 25.964
*N *3:5 *C 59.952 26.724
*N *3:6 *C 60.012 25.948
*N *3:7 *C 60.012 25.904
*N *3:8 *C 56.212 25.904
*N *3:9 *C 56.212 25.861
*N *3:10 *C 56.212 12.268
*N *3:11 *C 56.212 12.224
*N *3:12 *C 56.516 12.224
*N *3:13 *C 56.516 12.181

*CAP
0 *3 0.4111504
1 *72:A1 0.001
2 *91:A1 0.01254858
3 *3:3 0.006322387
4 *3:4 0.01366257
5 *3:5 0.04413905
6 *3:6 0.03472357
7 *3:7 0.1462958
8 *3:8 0.1467475
9 *3:9 0.5578755
10 *3:10 0.5483761
11 *3:11 0.01424676
12 *3:12 0.01424676
13 *3:13 0.4040338

*RES
0 *3 *3:13 21.29018
1 *3:3 *91:A1 0.08181819
2 *3:4 *3:3 0.5
3 *3:10 *3:9 24.27322
4 *3:11 *3:10 0.25
5 *3:13 *3:12 0.25
6 *3:12 *3:11 0.5428572
7 *3:9 *3:8 0.25
8 *3:9 *3:4 0.1533334
9 *3:8 *3:7 6.785715
10 *3:6 *3:5 1.386607
11 *3:7 *3:6 0.25
12 *3:5 *72:A1 0.5

*END

*D_NET *4 3.005032 //LENGTH 37.907 DR

*CONN
*P *4 I *L 0.000 *C 44.052 0.258
*I *75:A1 I *L 1.218 *C 54.388 24.572
*I *91:A3 I *L 0.554 *C 55.604 25.369
*N *4:3 *C 55.604 25.416
*N *4:4 *C 55.604 25.416
*N *4:5 *C 55.604 25.296
*N *4:6 *C 55.604 25.296
*N *4:7 *C 54.388 25.296
*N *4:8 *C 54.388 25.253
*N *4:9 *C 54.388 24.572
*N *4:10 *C 54.388 24.774
*N *4:11 *C 54.388 24.688
*N *4:12 *C 44.204 24.688
*N *4:13 *C 44.204 24.645
*N *4:14 *C 44.204 14.108
*N *4:15 *C 44.052 14.108

*CAP
0 *4 0.473657
1 *75:A1 0.001
2 *91:A3 0.01885488
3 *4:3 0.01262868
4 *4:4 0.0176801
5 *4:5 0.0167893
6 *4:6 0.06232268
7 *4:7 0.06228925
8 *4:8 0.03240871
9 *4:9 0.01232631
10 *4:10 0.04338456
11 *4:11 0.4662368
12 *4:12 0.4621894
13 *4:13 0.4139551
14 *4:14 0.4283622
15 *4:15 0.4809475

*RES
0 *4 *4:15 24.73215
1 *4:10 *4:9 0.1916667
2 *4:10 *4:8 0.8544643
3 *4:11 *4:10 0.25
4 *4:13 *4:12 0.25
5 *4:12 *4:11 18.20714
6 *4:9 *75:A1 0.5
7 *4:8 *4:7 0.25
8 *4:7 *4:6 2.171429
9 *4:5 *4:4 0.1916667
10 *4:6 *4:5 0.25
11 *4:3 *91:A3 0.08181819
12 *4:4 *4:3 0.5
13 *4:15 *4:14 0.2714286
14 *4:14 *4:13 18.81518

*END

*D_NET *5 4.600031 //LENGTH 55.516 DR

*CONN
*P *5 I *L 0.000 *C 31.740 0.258
*I *73:A1 I *L 1.127 *C 56.972 23.684
*I *92:A1 I *L 0.513 *C 55.960 29.308
*N *5:3 *C 55.905 29.337
*N *5:4 *C 55.908 29.279
*N *5:5 *C 57.032 23.684
*N *5:6 *C 57.032 23.684
*N *5:7 *C 56.972 23.776
*N *5:8 *C 56.972 23.776
*N *5:9 *C 55.908 23.776
*N *5:10 *C 55.908 23.776
*N *5:11 *C 55.908 21.388
*N *5:12 *C 55.908 21.344
*N *5:13 *C 31.740 21.344
*N *5:14 *C 31.740 21.301

*CAP
0 *5 0.73665
1 *73:A1 0.02074265
2 *92:A1 0.01583199
3 *5:3 0.009605799
4 *5:4 0.379851
5 *5:5 0.01451646
6 *5:6 0.01417377
7 *5:7 0.009331814
8 *5:8 0.05664932
9 *5:9 0.05454909
10 *5:10 0.4986538
11 *5:11 0.1069197
12 *5:12 0.9770154
13 *5:13 0.976007
14 *5:14 0.7295333

*RES
0 *5 *5:14 37.57589
1 *5:11 *5:10 4.265179
2 *5:12 *5:11 0.25
3 *5:14 *5:13 0.25
4 *5:13 *5:12 43.15714
5 *5:10 *5:9 0.25
6 *5:10 *5:4 9.826787
7 *5:9 *5:8 1.9
8 *5:7 *5:6 0.1533334
9 *5:8 *5:7 0.25
10 *5:5 *73:A1 0.1916667
11 *5:6 *5:5 0.5
12 *5:3 *92:A1 0.08181819
13 *5:4 *5:3 0.5

*END

*D_NET *6 4.77036 //LENGTH 65.773 DR

*CONN
*P *6 I *L 0.000 *C 19.428 0.258
*I *92:A3 I *L 0.554 *C 55.512 28.700
*I *75:A2 I *L 1.032 *C 54.024 24.444
*N *6:3 *C 54.024 24.444
*N *6:4 *C 54.084 24.140
*N *6:5 *C 55.512 28.700
*N *6:6 *C 55.452 24.124
*N *6:7 *C 55.452 24.080
*N *6:8 *C 54.236 24.080
*N *6:9 *C 54.236 24.037
*N *6:10 *C 54.236 20.780
*N *6:11 *C 54.236 20.736
*N *6:12 *C 19.428 20.736
*N *6:13 *C 19.428 20.693

*CAP
0 *6 0.7026341
1 *92:A3 0.001
2 *75:A2 0.001
3 *6:3 0.02742527
4 *6:4 0.02809472
5 *6:5 0.237845
6 *6:6 0.2253275
7 *6:7 0.06042381
8 *6:8 0.06006546
9 *6:9 0.1416837
10 *6:10 0.1325772
11 *6:11 1.228747
12 *6:12 1.228019
13 *6:13 0.6955175

*RES
0 *6 *6:13 36.68214
1 *6:9 *6:8 0.25
2 *6:9 *6:4 0.2714286
3 *6:8 *6:7 2.171429
4 *6:6 *6:5 8.392858
5 *6:7 *6:6 0.25
6 *6:5 *92:A3 0.5
7 *6:10 *6:9 5.816072
8 *6:11 *6:10 0.25
9 *6:13 *6:12 0.25
10 *6:12 *6:11 62.15713
11 *6:3 *75:A2 0.5
12 *6:4 *6:3 0.5428572

*END

*D_NET *7 7.363937 //LENGTH 96.924 DR

*CONN
*P *7 I *L 0.000 *C 7.116 0.258
*I *74:A2 I *L 1.036 *C 70.804 31.072
*I *94:A1 I *L 0.513 *C 62.305 32.652
*N *7:3 *C 62.352 32.652
*N *7:4 *C 62.352 32.652
*N *7:5 *C 70.804 30.950
*N *7:6 *C 70.804 31.072
*N *7:7 *C 70.804 31.072
*N *7:8 *C 62.292 31.072
*N *7:9 *C 62.292 31.072
*N *7:10 *C 62.292 30.508
*N *7:11 *C 62.292 30.464
*N *7:12 *C 57.061 30.524
*N *7:13 *C 7.116 30.464
*N *7:14 *C 7.116 30.421

*CAP
0 *7 1.017339
1 *74:A2 0.001
2 *94:A1 0.01495217
3 *7:3 0.008725974
4 *7:4 0.1006902
5 *7:5 0.01045749
6 *7:6 0.003717701
7 *7:7 0.3642074
8 *7:8 0.3685108
9 *7:9 0.1388098
10 *7:10 0.03605669
11 *7:11 0.2298051
12 *7:12 2.141366
13 *7:13 1.918077
14 *7:14 1.010222

*RES
0 *7 *7:14 53.8616
1 *7:9 *7:8 0.25
2 *7:9 *7:4 2.821429
3 *7:8 *7:7 15.2
4 *7:6 *74:A2 0.5
5 *7:6 *7:5 0.2033333
6 *7:7 *7:6 0.25
7 *7:10 *7:9 1.2
8 *7:11 *7:10 0.25
9 *7:14 *7:13 0.25
10 *7:13 *7:12 89.18747
11 *7:3 *94:A1 0.1254545
12 *7:4 *7:3 0.5
13 *7:12 *7:11 9.341072

*END

*D_NET *8 5.49933 //LENGTH 74.271 DR

*CONN
*P *8 I *L 0.000 *C 87.846 77.948
*I *94:A3 I *L 0.554 *C 61.836 32.057
*I *74:A1 I *L 1.127 *C 70.560 30.372
*N *8:3 *C 70.560 30.372
*N *8:4 *C 61.836 32.104
*N *8:5 *C 61.836 32.104
*N *8:6 *C 61.836 31.984
*N *8:7 *C 61.836 31.984
*N *8:8 *C 70.500 31.984
*N *8:9 *C 70.500 31.984
*N *8:10 *C 70.500 77.845
*N *8:11 *C 70.500 77.888
*N *8:12 *C 78.399 77.888
*N *8:13 *C 78.400 77.948

*CAP
0 *8 0.2698427
1 *94:A3 0.01836316
2 *74:A1 0.001
3 *8:3 0.07674105
4 *8:4 0.01213697
5 *8:5 0.01124716
6 *8:6 0.01016995
7 *8:7 0.3804442
8 *8:8 0.3797411
9 *8:9 1.837143
10 *8:10 1.760073
11 *8:11 0.2367449
12 *8:12 0.2358394
13 *8:13 0.2698427

*RES
0 *8 *8:13 16.86786
1 *8:10 *8:9 81.89373
2 *8:11 *8:10 0.25
3 *8:9 *8:8 0.25
4 *8:9 *8:3 2.878572
5 *8:8 *8:7 15.47143
6 *8:6 *8:5 0.1916667
7 *8:7 *8:6 0.25
8 *8:4 *94:A3 0.08181819
9 *8:5 *8:4 0.5
10 *8:3 *74:A1 0.5
11 *8:13 *8:12 0.01
12 *8:12 *8:11 14.10714

*END

*D_NET *9 4.425912 //LENGTH 50.902 DR

*CONN
*P *9 I *L 0.000 *C 87.846 65.788
*I *95:A1 I *L 0.513 *C 68.858 34.476
*I *76:A2 I *L 1.042 *C 71.960 35.996
*N *9:3 *C 71.960 35.996
*N *9:4 *C 69.483 34.476
*N *9:5 *C 69.528 34.476
*N *9:6 *C 69.588 35.893
*N *9:7 *C 69.588 35.936
*N *9:8 *C 72.020 35.936
*N *9:9 *C 72.020 36.010
*N *9:10 *C 72.020 65.685
*N *9:11 *C 72.020 65.728
*N *9:12 *C 78.399 65.728
*N *9:13 *C 78.400 65.788

*CAP
0 *9 0.2954719
1 *95:A1 0.03977739
2 *76:A2 0.001
3 *9:3 0.01787466
4 *9:4 0.0335512
5 *9:5 0.09137383
6 *9:6 0.07460456
7 *9:7 0.09454614
8 *9:8 0.09379193
9 *9:9 1.485944
10 *9:10 1.475925
11 *9:11 0.2145241
12 *9:12 0.2120562
13 *9:13 0.2954719

*RES
0 *9 *9:13 16.86786
1 *9:3 *76:A2 0.5
2 *9:10 *9:9 52.99107
3 *9:11 *9:10 0.25
4 *9:9 *9:8 0.25
5 *9:9 *9:3 0.0225
6 *9:8 *9:7 4.342858
7 *9:6 *9:5 2.529464
8 *9:7 *9:6 0.25
9 *9:4 *95:A1 1.25
10 *9:5 *9:4 0.5
11 *9:13 *9:12 0.01
12 *9:12 *9:11 11.42857

*END

*D_NET *10 3.078242 //LENGTH 39.079 DR

*CONN
*P *10 I *L 0.000 *C 87.846 53.932
*I *76:A1 I *L 0.978 *C 71.656 35.819
*I *95:A3 I *L 0.554 *C 68.372 35.072
*N *10:3 *C 68.372 34.902
*N *10:4 *C 68.372 35.024
*N *10:5 *C 68.372 35.024
*N *10:6 *C 68.372 35.024
*N *10:7 *C 71.716 35.024
*N *10:8 *C 71.716 35.068
*N *10:9 *C 71.656 35.819
*N *10:10 *C 71.716 53.829
*N *10:11 *C 71.716 53.872
*N *10:12 *C 78.399 53.872
*N *10:13 *C 78.400 53.932

*CAP
0 *10 0.2949639
1 *76:A1 0.001
2 *95:A3 0.01847231
3 *10:3 0.0132007
4 *10:4 0.01224611
5 *10:5 0.006469329
6 *10:6 0.1344833
7 *10:7 0.1334486
8 *10:8 0.03088834
9 *10:9 0.8601712
10 *10:10 0.8094174
11 *10:11 0.2371588
12 *10:12 0.2313579
13 *10:13 0.2949639

*RES
0 *10 *10:13 16.86786
1 *10:9 *76:A1 0.5
2 *10:9 *10:8 1.341964
3 *10:8 *10:7 0.25
4 *10:7 *10:6 5.971429
5 *10:5 *10:4 0.5
6 *10:5 *10:3 0.2033333
7 *10:6 *10:5 0.25
8 *10:4 *95:A3 0.08181819
9 *10:10 *10:9 32.15982
10 *10:11 *10:10 0.25
11 *10:13 *10:12 0.01
12 *10:12 *10:11 11.93571

*END

*D_NET *11 3.595045 //LENGTH 44.986 DR

*CONN
*P *11 I *L 0.000 *C 87.846 42.076
*I *70:A I *L 0.588 *C 69.284 54.540
*I *49:A1 I *L 0.603 *C 66.548 61.104
*I *59:A3 I *L 0.522 *C 72.780 57.692
*N *11:4 *C 72.780 57.647
*N *11:5 *C 72.780 57.604
*N *11:6 *C 66.718 61.076
*N *11:7 *C 66.760 61.076
*N *11:8 *C 66.700 58.476
*N *11:9 *C 66.700 58.432
*N *11:10 *C 69.284 58.432
*N *11:11 *C 69.284 58.389
*N *11:12 *C 69.284 54.584
*N *11:13 *C 69.284 57.216
*N *11:14 *C 69.284 57.216
*N *11:15 *C 72.780 57.216
*N *11:16 *C 72.780 57.276
*N *11:17 *C 73.084 57.276
*N *11:18 *C 73.084 42.060
*N *11:19 *C 73.084 42.016
*N *11:20 *C 78.399 42.016
*N *11:21 *C 78.400 42.076

*CAP
0 *11 0.2827609
1 *70:A 0.001
2 *49:A1 0.02350671
3 *59:A3 0.01306987
4 *11:4 0.006843673
5 *11:5 0.0279156
6 *11:6 0.01728052
7 *11:7 0.1213213
8 *11:8 0.1096309
9 *11:9 0.1188279
10 *11:10 0.1227103
11 *11:11 0.05008943
12 *11:12 0.1012293
13 *11:13 0.1618365
14 *11:14 0.1407976
15 *11:15 0.1418137
16 *11:16 0.04123312
17 *11:17 0.7487035
18 *11:18 0.727379
19 *11:19 0.1779737
20 *11:20 0.1763609
21 *11:21 0.2827609

*RES
0 *11 *11:21 16.86786
1 *11:16 *11:15 0.25
2 *11:16 *11:5 0.5848215
3 *11:15 *11:14 6.242857
4 *11:13 *11:12 4.700893
5 *11:13 *11:11 2.09375
6 *11:14 *11:13 0.25
7 *11:12 *70:A 0.5
8 *11:4 *59:A3 0.1245455
9 *11:5 *11:4 0.5
10 *11:11 *11:10 0.25
11 *11:10 *11:9 4.614286
12 *11:8 *11:7 4.64375
13 *11:9 *11:8 0.25
14 *11:6 *49:A1 0.2825
15 *11:7 *11:6 0.5
16 *11:18 *11:17 27.17232
17 *11:19 *11:18 0.25
18 *11:17 *11:16 0.5428572
19 *11:21 *11:20 0.01
20 *11:20 *11:19 9.492857

*END

*D_NET *12 6.731665 //LENGTH 83.088 DR

*CONN
*P *12 I *L 0.000 *C 87.846 29.916
*I *281:A I *L 0.588 *C 41.772 31.132
*I *132:A1 I *L 0.671 *C 38.580 34.324
*I *151:A I *L 0.588 *C 39.036 29.308
*I *56:A1 I *L 0.617 *C 68.828 52.744
*I *69:A I *L 0.588 *C 65.636 51.196
*N *12:6 *C 65.636 51.136
*N *12:7 *C 65.636 51.136
*N *12:8 *C 68.659 52.716
*N *12:9 *C 68.616 52.716
*N *12:10 *C 68.676 51.300
*N *12:11 *C 68.676 51.256
*N *12:12 *C 69.892 51.136
*N *12:13 *C 69.892 51.093
*N *12:14 *C 39.036 29.352
*N *12:15 *C 38.580 34.311
*N *12:16 *C 38.580 30.828
*N *12:17 *C 39.036 30.725
*N *12:18 *C 39.036 30.768
*N *12:19 *C 41.772 31.089
*N *12:20 *C 41.772 30.812
*N *12:21 *C 41.772 30.768
*N *12:22 *C 69.892 30.768
*N *12:23 *C 69.892 30.768
*N *12:24 *C 69.892 29.900
*N *12:25 *C 69.892 29.856
*N *12:26 *C 78.399 29.856
*N *12:27 *C 78.400 29.916

*CAP
0 *12 0.2910592
1 *281:A 0.001
2 *132:A1 0.001
3 *151:A 0.001
4 *56:A1 0.0152039
5 *69:A 0.001
6 *12:6 0.001
7 *12:7 0.1041602
8 *12:8 0.008977704
9 *12:9 0.06542639
10 *12:10 0.05449575
11 *12:11 0.1557085
12 *12:12 0.05713128
13 *12:13 0.8641607
14 *12:14 0.07082122
15 *12:15 0.1841022
16 *12:16 0.2088759
17 *12:17 0.08934293
18 *12:18 0.1402902
19 *12:19 0.02076219
20 *12:20 0.01831518
21 *12:21 1.359616
22 *12:22 1.224572
23 *12:23 0.9125617
24 *12:24 0.03433895
25 *12:25 0.2788732
26 *12:26 0.2768106
27 *12:27 0.2910592

*RES
0 *12 *12:27 16.86786
1 *12:6 *69:A 0.5
2 *12:7 *12:6 0.25
3 *12:24 *12:23 1.550893
4 *12:25 *12:24 0.25
5 *12:17 *12:16 0.8142858
6 *12:17 *12:14 2.451786
7 *12:18 *12:17 0.25
8 *12:13 *12:12 0.25
9 *12:12 *12:11 2.171429
10 *12:23 *12:22 0.25
11 *12:23 *12:13 36.48572
12 *12:22 *12:21 50.21428
13 *12:10 *12:9 2.707143
14 *12:11 *12:10 0.25
15 *12:11 *12:7 5.492857
16 *12:8 *56:A1 0.1208333
17 *12:9 *12:8 0.5
18 *12:14 *151:A 0.5
19 *12:15 *132:A1 1
20 *12:20 *12:19 0.4946429
21 *12:21 *12:20 0.25
22 *12:21 *12:18 4.885715
23 *12:19 *281:A 0.5
24 *12:16 *12:15 6.21875
25 *12:27 *12:26 0.01
26 *12:26 *12:25 15.19286

*END

*D_NET *13 3.360911 //LENGTH 47.492 DR

*CONN
*P *13 I *L 0.000 *C 87.846 18.060
*I *73:A2 I *L 1.036 *C 56.668 24.384
*I *225:A1 I *L 0.513 *C 52.577 29.308
*N *13:3 *C 52.624 29.308
*N *13:4 *C 52.624 29.308
*N *13:5 *C 52.564 24.428
*N *13:6 *C 52.564 24.384
*N *13:7 *C 56.668 24.262
*N *13:8 *C 56.668 24.384
*N *13:9 *C 56.668 24.384
*N *13:10 *C 78.399 24.384
*N *13:11 *C 78.400 24.444
*N *13:12 *C 87.524 24.384
*N *13:13 *C 87.524 24.341
*N *13:14 *C 87.524 18.044
*N *13:15 *C 87.524 18.000

*CAP
0 *13 0.01378294
1 *73:A2 0.001
2 *225:A1 0.01669813
3 *13:3 0.01047194
4 *13:4 0.2009726
5 *13:5 0.1912866
6 *13:6 0.1836508
7 *13:7 0.01056481
8 *13:8 0.004647702
9 *13:9 0.9545112
10 *13:10 0.76806
11 *13:11 0.2766971
12 *13:12 0.2775953
13 *13:13 0.2179381
14 *13:14 0.2179381
15 *13:15 0.01509515

*RES
0 *13 *13:15 0.575
1 *13:13 *13:12 0.25
2 *13:12 *13:11 16.29286
3 *13:14 *13:13 11.24464
4 *13:15 *13:14 0.25
5 *13:5 *13:4 8.715178
6 *13:6 *13:5 0.25
7 *13:3 *225:A1 0.08181819
8 *13:4 *13:3 0.5
9 *13:8 *73:A2 0.5
10 *13:8 *13:7 0.2033333
11 *13:9 *13:8 0.25
12 *13:9 *13:6 7.328572
13 *13:11 *13:10 0.01
14 *13:10 *13:9 38.80715

*END

*D_NET *14 3.793372 //LENGTH 54.542 DR

*CONN
*I *98:Y O *L 0.000 *C 73.236 45.512
*P *14 O *L 0.020 *C 87.846 5.900
*N *14:2 *C 78.400 5.900
*N *14:3 *C 78.399 5.840
*N *14:4 *C 73.236 5.840
*N *14:5 *C 73.236 5.884
*N *14:6 *C 73.236 45.481

*CAP
0 *98:Y 0.001
1 *14 0.2691807
2 *14:2 0.2691807
3 *14:3 0.1476329
4 *14:4 0.1479006
5 *14:5 1.479214
6 *14:6 1.479263

*RES
0 *98:Y *14:6 0.5
1 *14:6 *14:5 70.7098
2 *14:5 *14:4 0.25
3 *14:4 *14:3 9.221429
4 *14:2 *14 16.86786
5 *14:3 *14:2 0.01

*END

*D_NET *15 1.639645 //LENGTH 24.779 DR

*CONN
*I *43:Y O *L 0.000 *C 72.476 71.564
*P *15 O *L 0.020 *C 81.140 86.934
*N *15:2 *C 81.140 78.400
*N *15:3 *C 81.140 78.399
*N *15:4 *C 81.140 71.548
*N *15:5 *C 81.140 71.504
*N *15:6 *C 78.400 71.564
*N *15:7 *C 78.399 71.504
*N *15:8 *C 72.476 71.504
*N *15:9 *C 72.476 71.504
*N *15:10 *C 72.416 71.564
*N *15:11 *C 72.416 71.564

*CAP
0 *43:Y 0.01380346
1 *15 0.2812092
2 *15:2 0.2812092
3 *15:3 0.235024
4 *15:4 0.2279073
5 *15:5 0.08889324
6 *15:6 0.08772271
7 *15:7 0.1942696
8 *15:8 0.1965151
9 *15:9 0.01013139
10 *15:10 0.01538241
11 *15:11 0.00757726

*RES
0 *43:Y *15:11 0.1916667
1 *15:11 *15:10 0.5
2 *15:10 *15:9 0.1
3 *15:9 *15:8 0.25
4 *15:8 *15:7 10.57857
5 *15:4 *15:3 12.23661
6 *15:5 *15:4 0.25
7 *15:2 *15 15.23929
8 *15:3 *15:2 0.01
9 *15:6 *15:5 4.892858
10 *15:7 *15:6 0.01

*END

*D_NET *16 5.620958 //LENGTH 69.828 DR

*CONN
*P *16 I *L 0.000 *C 68.828 86.934
*I *208:A4 I *L 0.575 *C 47.244 59.287
*I *206:A3 I *L 0.554 *C 45.268 58.480
*I *119:A2 I *L 0.593 *C 51.044 46.205
*I *210:A4 I *L 0.575 *C 47.700 51.323
*N *16:5 *C 47.700 51.263
*N *16:6 *C 51.044 46.265
*N *16:7 *C 51.044 46.309
*N *16:8 *C 51.044 51.093
*N *16:9 *C 51.044 51.136
*N *16:10 *C 47.700 51.256
*N *16:11 *C 47.700 51.256
*N *16:12 *C 47.396 51.196
*N *16:13 *C 47.396 58.492
*N *16:14 *C 45.268 58.310
*N *16:15 *C 45.268 58.432
*N *16:16 *C 45.268 58.432
*N *16:17 *C 45.268 58.432
*N *16:18 *C 47.244 58.432
*N *16:19 *C 47.244 58.492
*N *16:20 *C 47.244 59.287
*N *16:21 *C 47.244 78.399
*N *16:22 *C 47.244 78.400
*N *16:23 *C 47.244 86.053
*N *16:24 *C 47.244 86.096
*N *16:25 *C 68.828 86.096
*N *16:26 *C 68.828 86.140

*CAP
0 *16 0.03334215
1 *208:A4 0.001
2 *206:A3 0.01556727
3 *119:A2 0.01753105
4 *210:A4 0.01510403
5 *16:5 0.008877832
6 *16:6 0.01130486
7 *16:7 0.3123207
8 *16:8 0.3114303
9 *16:9 0.153465
10 *16:10 0.1507488
11 *16:11 0.008041392
12 *16:12 0.4930562
13 *16:13 0.4872988
14 *16:14 0.01232513
15 *16:15 0.00934107
16 *16:16 0.006189853
17 *16:17 0.1001154
18 *16:18 0.1017998
19 *16:19 0.06461046
20 *16:20 0.788523
21 *16:21 0.72351
22 *16:22 0.2610283
23 *16:23 0.2539116
24 *16:24 0.6272939
25 *16:25 0.6269957
26 *16:26 0.0262255

*RES
0 *16 *16:26 1.41875
1 *16:20 *208:A4 0.5
2 *16:20 *16:19 1.419643
3 *16:11 *16:10 0.25
4 *16:11 *16:5 0.5
5 *16:10 *16:9 5.971429
6 *16:8 *16:7 8.734822
7 *16:9 *16:8 0.25
8 *16:6 *119:A2 0.08181819
9 *16:7 *16:6 0.5
10 *16:23 *16:22 13.66518
11 *16:24 *16:23 0.25
12 *16:26 *16:25 0.25
13 *16:25 *16:24 38.54286
14 *16:5 *210:A4 0.1390909
15 *16:19 *16:18 0.25
16 *16:19 *16:13 0.2714286
17 *16:18 *16:17 3.528571
18 *16:16 *16:15 0.5
19 *16:16 *16:14 0.2033333
20 *16:17 *16:16 0.25
21 *16:15 *206:A3 0.08181819
22 *16:13 *16:12 13.02857
23 *16:12 *16:11 0.5428572
24 *16:22 *16:21 0.01
25 *16:21 *16:20 34.13036

*END

*D_NET *17 1.07413 //LENGTH 15.210 DR

*CONN
*I *38:Y O *L 0.000 *C 56.212 72.653
*P *17 O *L 0.020 *C 56.516 86.934
*N *17:2 *C 56.516 78.400
*N *17:3 *C 56.516 78.399
*N *17:4 *C 56.516 74.284
*N *17:5 *C 56.516 74.240
*N *17:6 *C 56.212 74.240
*N *17:7 *C 56.212 74.197
*N *17:8 *C 56.152 72.653
*N *17:9 *C 56.152 72.653

*CAP
0 *38:Y 0.01810521
1 *17 0.289564
2 *17:2 0.289564
3 *17:3 0.15002
4 *17:4 0.1429034
5 *17:5 0.0161994
6 *17:6 0.0161994
7 *17:7 0.0640605
8 *17:8 0.07563526
9 *17:9 0.01187901

*RES
0 *38:Y *17:9 0.1916667
1 *17:9 *17:8 0.5
2 *17:8 *17:7 2.75625
3 *17:7 *17:6 0.25
4 *17:6 *17:5 0.5428572
5 *17:4 *17:3 7.350893
6 *17:5 *17:4 0.25
7 *17:2 *17 15.23929
8 *17:3 *17:2 0.01

*END

*D_NET *18 1.779612 //LENGTH 25.090 DR

*CONN
*I *246:Y O *L 0.000 *C 40.813 66.055
*P *18 O *L 0.020 *C 44.052 86.934
*N *18:2 *C 40.860 65.910
*N *18:3 *C 44.052 78.400
*N *18:4 *C 44.052 78.399
*N *18:5 *C 44.052 72.476
*N *18:6 *C 44.204 72.476
*N *18:7 *C 44.204 66.076
*N *18:8 *C 44.204 66.032
*N *18:9 *C 40.860 66.032
*N *18:10 *C 40.860 65.986
*N *18:11 *C 40.860 66.025

*CAP
0 *246:Y 0.01664451
1 *18 0.2865771
2 *18:2 0.009975366
3 *18:3 0.2865771
4 *18:4 0.2116687
5 *18:5 0.2191572
6 *18:6 0.2548885
7 *18:7 0.2402833
8 *18:8 0.1205945
9 *18:9 0.121827
10 *18:10 0.001
11 *18:11 0.01041832

*RES
0 *246:Y *18:11 0.08181818
1 *18:11 *18:10 0.5
2 *18:10 *18:9 0.25
3 *18:10 *18:2 0.1266667
4 *18:9 *18:8 5.971429
5 *18:7 *18:6 11.42947
6 *18:8 *18:7 0.25
7 *18:5 *18:4 10.57857
8 *18:6 *18:5 0.2714286
9 *18:3 *18 15.23929
10 *18:4 *18:3 0.01

*END

*D_NET *19 1.621125 //LENGTH 22.877 DR

*CONN
*I *247:Y O *L 0.000 *C 35.388 68.033
*P *19 O *L 0.020 *C 31.740 86.934
*N *19:2 *C 31.740 78.400
*N *19:3 *C 31.740 78.399
*N *19:4 *C 31.740 68.204
*N *19:5 *C 31.740 68.160
*N *19:6 *C 35.388 68.160
*N *19:7 *C 35.388 68.160
*N *19:8 *C 35.388 68.033

*CAP
0 *247:Y 0.001
1 *19 0.2864526
2 *19:2 0.2864526
3 *19:3 0.3627152
4 *19:4 0.3555986
5 *19:5 0.157043
6 *19:6 0.1555791
7 *19:7 0.008558731
8 *19:8 0.007725437

*RES
0 *247:Y *19:8 0.5
1 *19:8 *19:7 0.1916667
2 *19:7 *19:6 0.25
3 *19:6 *19:5 6.514286
4 *19:4 *19:3 18.20804
5 *19:5 *19:4 0.25
6 *19:2 *19 15.23929
7 *19:3 *19:2 0.01

*END

*D_NET *20 1.959735 //LENGTH 28.123 DR

*CONN
*I *248:Y O *L 0.000 *C 29.916 70.044
*P *20 O *L 0.020 *C 19.428 86.934
*N *20:2 *C 19.428 78.400
*N *20:3 *C 19.428 78.399
*N *20:4 *C 19.428 70.028
*N *20:5 *C 19.428 69.984
*N *20:6 *C 29.916 69.984
*N *20:7 *C 29.916 69.984
*N *20:8 *C 29.856 70.044
*N *20:9 *C 29.856 70.044

*CAP
0 *248:Y 0.01446704
1 *20 0.2833797
2 *20:2 0.2833797
3 *20:3 0.3023584
4 *20:4 0.2952418
5 *20:5 0.3746779
6 *20:6 0.3738016
7 *20:7 0.009176415
8 *20:8 0.01501174
9 *20:9 0.008240846

*RES
0 *248:Y *20:9 0.1916667
1 *20:9 *20:8 0.5
2 *20:8 *20:7 0.09999999
3 *20:7 *20:6 0.25
4 *20:6 *20:5 18.72857
5 *20:4 *20:3 14.95089
6 *20:5 *20:4 0.25
7 *20:2 *20 15.23929
8 *20:3 *20:2 0.01

*END

*D_NET *21 1.870261 //LENGTH 28.501 DR

*CONN
*I *249:Y O *L 0.000 *C 19.732 71.377
*P *21 O *L 0.020 *C 7.116 86.934
*N *21:2 *C 7.116 78.400
*N *21:3 *C 7.116 78.399
*N *21:4 *C 7.116 71.548
*N *21:5 *C 7.116 71.504
*N *21:6 *C 19.732 71.504
*N *21:7 *C 19.732 71.504
*N *21:8 *C 19.732 71.377

*CAP
0 *249:Y 0.001
1 *21 0.2811948
2 *21:2 0.2811948
3 *21:3 0.2348157
4 *21:4 0.227699
5 *21:5 0.4125377
6 *21:6 0.4136395
7 *21:7 0.009509073
8 *21:8 0.008670035

*RES
0 *249:Y *21:8 0.5
1 *21:8 *21:7 0.1916667
2 *21:7 *21:6 0.25
3 *21:6 *21:5 22.52857
4 *21:4 *21:3 12.23661
5 *21:5 *21:4 0.25
6 *21:2 *21 15.23929
7 *21:3 *21:2 0.01

*END

*D_NET *22 1.585106 //LENGTH 24.526 DR

*CONN
*I *250:Y O *L 0.000 *C 16.692 70.196
*P *22 O *L 0.020 *C 0.258 77.948
*N *22:2 *C 15.780 77.888
*N *22:3 *C 15.780 77.845
*N *22:4 *C 15.720 70.196
*N *22:5 *C 15.765 70.196

*CAP
0 *250:Y 0.07264282
1 *22 0.4516697
2 *22:2 0.4524415
3 *22:3 0.2657619
4 *22:4 0.2761733
5 *22:5 0.06641662

*RES
0 *250:Y *22:5 1.854
1 *22:5 *22:4 0.5
2 *22:4 *22:3 13.65804
3 *22:3 *22:2 0.25
4 *22:2 *22 27.71786

*END

*D_NET *23 1.231281 //LENGTH 18.598 DR

*CONN
*I *251:Y O *L 0.000 *C 16.236 63.508
*P *23 O *L 0.020 *C 0.258 65.788
*N *23:2 *C 16.084 65.728
*N *23:3 *C 16.084 65.685
*N *23:4 *C 16.024 63.508
*N *23:5 *C 16.069 63.508

*CAP
0 *251:Y 0.0237851
1 *23 0.5009298
2 *23:2 0.5030401
3 *23:3 0.08605121
4 *23:4 0.09991591
5 *23:5 0.01755891

*RES
0 *251:Y *23:5 0.4720001
1 *23:5 *23:4 0.5
2 *23:4 *23:3 3.886607
3 *23:3 *23:2 0.25
4 *23:2 *23 28.26072

*END

*D_NET *24 1.010799 //LENGTH 15.885 DR

*CONN
*I *252:Y O *L 0.000 *C 15.628 53.932
*P *24 O *L 0.020 *C 0.258 53.932
*N *24:2 *C 15.628 53.872
*N *24:3 *C 15.628 53.872
*N *24:4 *C 15.568 53.932
*N *24:5 *C 15.568 53.932

*CAP
0 *252:Y 0.01416639
1 *24 0.4828328
2 *24:2 0.484116
3 *24:3 0.008029222
4 *24:4 0.01371428
5 *24:5 0.007940198

*RES
0 *252:Y *24:5 0.1916667
1 *24:5 *24:4 0.5
2 *24:4 *24:3 0.1
3 *24:3 *24:2 0.25
4 *24:2 *24 27.44643

*END

*D_NET *25 1.40622 //LENGTH 21.150 DR

*CONN
*I *253:Y O *L 0.000 *C 15.932 47.092
*P *25 O *L 0.020 *C 0.258 42.076
*N *25:2 *C 15.780 42.016
*N *25:3 *C 15.780 42.060
*N *25:4 *C 15.720 47.092
*N *25:5 *C 15.765 47.092

*CAP
0 *253:Y 0.0233753
1 *25 0.4819756
2 *25:2 0.483044
3 *25:3 0.194879
4 *25:4 0.2057974
5 *25:5 0.0171491

*RES
0 *253:Y *25:5 0.3340001
1 *25:5 *25:4 0.5
2 *25:4 *25:3 8.986609
3 *25:3 *25:2 0.25
4 *25:2 *25 27.71786

*END

*D_NET *26 2.710142 //LENGTH 40.315 DR

*CONN
*I *254:Y O *L 0.000 *C 38.124 28.152
*P *26 O *L 0.020 *C 0.258 29.916
*N *26:2 *C 0.732 29.856
*N *26:3 *C 0.732 29.813
*N *26:4 *C 0.732 28.076
*N *26:5 *C 0.732 28.032
*N *26:6 *C 38.124 28.032
*N *26:7 *C 38.124 28.032
*N *26:8 *C 38.124 28.152

*CAP
0 *254:Y 0.001
1 *26 0.01869203
2 *26:2 0.02004394
3 *26:3 0.06473283
4 *26:4 0.06473283
5 *26:5 1.252117
6 *26:6 1.254029
7 *26:7 0.01781709
8 *26:8 0.01697716

*RES
0 *254:Y *26:8 0.5
1 *26:8 *26:7 0.1916667
2 *26:7 *26:6 0.25
3 *26:6 *26:5 66.77141
4 *26:4 *26:3 3.101786
5 *26:5 *26:4 0.25
6 *26:3 *26:2 0.25
7 *26:2 *26 0.8464286

*END

*D_NET *11238 0.07544542 //LENGTH 0.543 DR

*CONN
*I *41:Y O *L 0.000 *C 65.519 19.266
*I *311:A I *L 0.424 *C 66.062 19.276

*CAP
0 *41:Y 0.03772271
1 *311:A 0.03772271

*RES
0 *41:Y *311:A 1.086

*END

*D_NET *11239 0.4630025 //LENGTH 5.152 DR

*CONN
*I *40:Y O *L 0.000 *C 65.940 21.556
*I *37:D I *L 0.547 *C 65.472 25.812
*N *11239:2 *C 65.424 25.812
*N *11239:3 *C 65.424 25.812
*N *11239:4 *C 65.424 21.556
*N *11239:5 *C 65.469 21.556

*CAP
0 *40:Y 0.04097082
1 *37:D 0.01314924
2 *11239:2 0.006923046
3 *11239:3 0.181376
4 *11239:4 0.1858389
5 *11239:5 0.03474463

*RES
0 *40:Y *11239:5 0.9420001
1 *11239:5 *11239:4 0.5
2 *11239:4 *11239:3 7.6
3 *11239:2 *37:D 0.08181819
4 *11239:3 *11239:2 0.5

*END

*D_NET *11240 0.5713626 //LENGTH 6.294 DR

*CONN
*I *33:QN O *L 0.000 *C 64.754 20.699
*I *190:A I *L 0.424 *C 61.136 22.565
*N *11240:2 *C 61.136 22.565
*N *11240:3 *C 61.076 20.780
*N *11240:4 *C 61.076 20.736
*N *11240:5 *C 64.724 20.856
*N *11240:6 *C 64.724 20.813
*N *11240:7 *C 64.784 20.644
*N *11240:8 *C 64.784 20.644

*CAP
0 *33:QN 0.01372211
1 *190:A 0.001
2 *11240:2 0.1180402
3 *11240:3 0.107089
4 *11240:4 0.1450058
5 *11240:5 0.1434373
6 *11240:6 0.01209584
7 *11240:7 0.02347639
8 *11240:8 0.007495919

*RES
0 *33:QN *11240:8 0.08181819
1 *11240:2 *190:A 0.5
2 *11240:3 *11240:2 3.188393
3 *11240:4 *11240:3 0.25
4 *11240:6 *11240:5 0.25
5 *11240:5 *11240:4 6.514287
6 *11240:8 *11240:7 0.5
7 *11240:7 *11240:6 0.3008929

*END

*D_NET *11241 0.3625353 //LENGTH 4.783 DR

*CONN
*I *35:Y O *L 0.000 *C 70.196 20.029
*I *40:A1 I *L 1.218 *C 67.156 21.252
*N *11241:2 *C 67.156 21.252
*N *11241:3 *C 67.156 21.344
*N *11241:4 *C 70.196 21.344
*N *11241:5 *C 70.196 21.301
*N *11241:6 *C 70.256 20.036
*N *11241:7 *C 70.256 20.036

*CAP
0 *35:Y 0.01877555
1 *40:A1 0.001
2 *11241:2 0.001
3 *11241:3 0.1138804
4 *11241:4 0.1104602
5 *11241:5 0.04890123
6 *11241:6 0.05596851
7 *11241:7 0.01254935

*RES
0 *35:Y *11241:7 0.08181818
1 *11241:2 *40:A1 0.5
2 *11241:3 *11241:2 0.25
3 *11241:5 *11241:4 0.25
4 *11241:4 *11241:3 5.428572
5 *11241:7 *11241:6 0.5
6 *11241:6 *11241:5 2.258036

*END

*D_NET *11242 5.353519 //LENGTH 61.992 DR

*CONN
*I *37:Q O *L 0.000 *C 69.434 25.664
*I *71:CLK I *L 0.705 *C 65.928 23.684
*I *40:A2 I *L 1.032 *C 67.520 21.100
*I *88:CLK I *L 0.702 *C 66.700 30.002
*I *77:CLK I *L 0.702 *C 67.004 43.814
*I *80:CLK I *L 0.702 *C 59.312 53.410
*I *64:CLK I *L 0.701 *C 59.616 53.754
*I *63:CLK I *L 0.701 *C 58.856 57.098
*I *62:CLK I *L 0.701 *C 59.996 63.442
*I *78:CLK I *L 0.702 *C 62.992 50.066
*I *79:CLK I *L 0.702 *C 68.220 40.034
*N *11242:11 *C 68.280 40.034
*N *11242:12 *C 68.280 40.034
*N *11242:13 *C 68.220 39.888
*N *11242:14 *C 68.220 39.888
*N *11242:15 *C 62.992 50.066
*N *11242:16 *C 59.920 63.442
*N *11242:17 *C 59.920 63.442
*N *11242:18 *C 59.860 56.972
*N *11242:19 *C 58.856 57.098
*N *11242:20 *C 58.796 56.955
*N *11242:21 *C 58.796 56.912
*N *11242:22 *C 59.556 56.912
*N *11242:23 *C 59.557 56.972
*N *11242:24 *C 59.616 53.754
*N *11242:25 *C 59.556 53.611
*N *11242:26 *C 59.556 53.537
*N *11242:27 *C 59.312 53.410
*N *11242:28 *C 59.252 53.264
*N *11242:29 *C 59.252 53.264
*N *11242:30 *C 59.556 53.324
*N *11242:31 *C 59.860 53.264
*N *11242:32 *C 59.860 53.221
*N *11242:33 *C 59.860 49.660
*N *11242:34 *C 59.860 49.616
*N *11242:35 *C 63.052 49.616
*N *11242:36 *C 63.052 49.690
*N *11242:37 *C 62.900 49.676
*N *11242:38 *C 62.900 44.492
*N *11242:39 *C 62.900 44.448
*N *11242:40 *C 67.004 44.448
*N *11242:41 *C 67.004 44.405
*N *11242:42 *C 66.944 43.814
*N *11242:43 *C 66.944 43.814
*N *11242:44 *C 67.004 39.932
*N *11242:45 *C 67.004 39.888
*N *11242:46 *C 67.460 39.888
*N *11242:47 *C 67.460 39.845
*N *11242:48 *C 66.760 30.002
*N *11242:49 *C 66.760 30.002
*N *11242:50 *C 66.700 29.856
*N *11242:51 *C 66.700 29.856
*N *11242:52 *C 67.460 29.856
*N *11242:53 *C 67.460 29.856
*N *11242:54 *C 67.520 21.100
*N *11242:55 *C 65.880 23.684
*N *11242:56 *C 65.880 23.684
*N *11242:57 *C 65.940 23.776
*N *11242:58 *C 65.940 23.776
*N *11242:59 *C 67.460 23.776
*N *11242:60 *C 67.460 23.776
*N *11242:61 *C 67.460 25.600
*N *11242:62 *C 67.460 25.600
*N *11242:63 *C 69.436 25.600
*N *11242:64 *C 69.434 25.664

*CAP
0 *37:Q 0.001
1 *71:CLK 0.0209661
2 *40:A2 0.001
3 *88:CLK 0.02227056
4 *77:CLK 0.0160258
5 *80:CLK 0.001
6 *64:CLK 0.001
7 *63:CLK 0.001
8 *62:CLK 0.01873984
9 *78:CLK 0.001
10 *79:CLK 0.02070546
11 *11242:11 0.01447927
12 *11242:12 0.01478859
13 *11242:13 0.009664645
14 *11242:14 0.03278899
15 *11242:15 0.02111981
16 *11242:16 0.01251365
17 *11242:17 0.2887733
18 *11242:18 0.2975877
19 *11242:19 0.01841452
20 *11242:20 0.006406146
21 *11242:21 0.0316344
22 *11242:22 0.03253978
23 *11242:23 0.1446335
24 *11242:24 0.161873
25 *11242:25 0.008811308
26 *11242:26 0.006557751
27 *11242:27 0.0186499
28 *11242:28 0.009800364
29 *11242:29 0.01507103
30 *11242:30 0.0391021
31 *11242:31 0.01511036
32 *11242:32 0.1559356
33 *11242:33 0.1559356
34 *11242:34 0.1125034
35 *11242:35 0.1120944
36 *11242:36 0.01742135
37 *11242:37 0.2475968
38 *11242:38 0.2324879
39 *11242:39 0.1760047
40 *11242:40 0.1761787
41 *11242:41 0.03852749
42 *11242:42 0.009799609
43 *11242:43 0.2942683
44 *11242:44 0.230668
45 *11242:45 0.02304118
46 *11242:46 0.05211597
47 *11242:47 0.3937612
48 *11242:48 0.01604437
49 *11242:49 0.01930289
50 *11242:50 0.0104973
51 *11242:51 0.03643492
52 *11242:52 0.03503018
53 *11242:53 0.5688387
54 *11242:54 0.1412649
55 *11242:55 0.0147399
56 *11242:56 0.01124996
57 *11242:57 0.01023103
58 *11242:58 0.06864357
59 *11242:59 0.06651038
60 *11242:60 0.2132265
61 *11242:61 0.2512166
62 *11242:62 0.07725293
63 *11242:63 0.07866737
64 *11242:64 0.001

*RES
0 *37:Q *11242:64 0.5
1 *11242:60 *11242:59 0.25
2 *11242:60 *11242:54 4.778572
3 *11242:59 *11242:58 2.714286
4 *11242:57 *11242:56 0.1
5 *11242:58 *11242:57 0.25
6 *11242:55 *71:CLK 0.08181819
7 *11242:56 *11242:55 0.5
8 *11242:24 *64:CLK 0.5
9 *11242:24 *11242:23 5.746429
10 *11242:23 *11242:22 0.25
11 *11242:23 *11242:18 0.5410715
12 *11242:22 *11242:21 1.357143
13 *11242:20 *11242:19 0.2391667
14 *11242:21 *11242:20 0.25
15 *11242:19 *63:CLK 0.5
16 *11242:44 *11242:43 6.933036
17 *11242:45 *11242:44 0.25
18 *11242:54 *40:A2 0.5
19 *11242:15 *78:CLK 0.5
20 *11242:25 *11242:24 0.2391667
21 *11242:26 *11242:25 0.25
22 *11242:61 *11242:60 3.257143
23 *11242:61 *11242:53 7.6
24 *11242:62 *11242:61 0.25
25 *11242:64 *11242:63 0.25
26 *11242:63 *11242:62 3.528572
27 *11242:47 *11242:46 0.25
28 *11242:46 *11242:45 0.8142857
29 *11242:46 *11242:14 1.357143
30 *11242:28 *11242:27 0.1916667
31 *11242:29 *11242:28 0.25
32 *11242:27 *80:CLK 0.5
33 *11242:13 *11242:12 0.1916667
34 *11242:14 *11242:13 0.25
35 *11242:11 *79:CLK 0.1916667
36 *11242:12 *11242:11 0.5
37 *11242:41 *11242:40 0.25
38 *11242:40 *11242:39 7.328572
39 *11242:38 *11242:37 9.258036
40 *11242:39 *11242:38 0.25
41 *11242:36 *11242:35 0.25
42 *11242:36 *11242:15 0.6723215
43 *11242:35 *11242:34 5.700001
44 *11242:33 *11242:32 6.465179
45 *11242:34 *11242:33 0.25
46 *11242:32 *11242:31 0.25
47 *11242:31 *11242:30 0.5428572
48 *11242:16 *62:CLK 0.1916667
49 *11242:17 *11242:16 0.5
50 *11242:42 *77:CLK 0.1916667
51 *11242:43 *11242:42 0.5
52 *11242:43 *11242:41 1.054464
53 *11242:53 *11242:52 0.25
54 *11242:53 *11242:47 18.11429
55 *11242:52 *11242:51 1.357143
56 *11242:50 *11242:49 0.1916667
57 *11242:51 *11242:50 0.25
58 *11242:48 *88:CLK 0.1916667
59 *11242:49 *11242:48 0.5
60 *11242:18 *11242:17 11.55357
61 *11242:37 *11242:36 0.2714286
62 *11242:30 *11242:29 0.6357144
63 *11242:30 *11242:26 0.3803572

*END

*D_NET *11243 0.8145207 //LENGTH 9.834 DR

*CONN
*I *34:Q O *L 0.000 *C 69.922 17.712
*I *35:A1 I *L 0.614 *C 69.588 19.468
*I *41:A1 I *L 0.978 *C 64.024 19.149
*N *11243:3 *C 64.024 19.149
*N *11243:4 *C 63.964 18.955
*N *11243:5 *C 63.964 18.912
*N *11243:6 *C 69.588 19.368
*N *11243:7 *C 69.588 19.399
*N *11243:8 *C 69.588 19.580
*N *11243:9 *C 69.436 19.580
*N *11243:10 *C 69.436 18.956
*N *11243:11 *C 69.436 18.912
*N *11243:12 *C 69.892 18.912
*N *11243:13 *C 69.892 18.869
*N *11243:14 *C 69.892 17.543
*N *11243:15 *C 69.892 17.549

*CAP
0 *34:Q 0.01580296
1 *35:A1 0.01691659
2 *41:A1 0.001
3 *11243:3 0.01325214
4 *11243:4 0.007525832
5 *11243:5 0.2342455
6 *11243:6 0.0106904
7 *11243:7 0.008516017
8 *11243:8 0.0229447
9 *11243:9 0.04578463
10 *11243:10 0.03046549
11 *11243:11 0.2546677
12 *11243:12 0.02303607
13 *11243:13 0.05960265
14 *11243:14 0.06049311
15 *11243:15 0.00957677

*RES
0 *34:Q *11243:15 0.1308333
1 *11243:10 *11243:9 1.115179
2 *11243:11 *11243:10 0.25
3 *11243:11 *11243:5 9.771429
4 *11243:6 *35:A1 0.1916667
5 *11243:7 *11243:6 0.5
6 *11243:4 *11243:3 0.3241667
7 *11243:5 *11243:4 0.25
8 *11243:3 *41:A1 0.5
9 *11243:13 *11243:12 0.25
10 *11243:12 *11243:11 0.8142858
11 *11243:15 *11243:14 0.5
12 *11243:14 *11243:13 2.366964
13 *11243:9 *11243:8 0.2714286
14 *11243:8 *11243:7 0.3232143

*END

*D_NET *11244 0.7276587 //LENGTH 8.424 DR

*CONN
*I *33:Q O *L 0.000 *C 64.602 21.056
*I *41:A2 I *L 1.042 *C 63.720 19.276
*I *35:A2 I *L 0.532 *C 69.299 19.276
*N *11244:3 *C 69.224 19.276
*N *11244:4 *C 69.224 19.276
*N *11244:5 *C 69.284 19.216
*N *11244:6 *C 69.284 19.216
*N *11244:7 *C 63.720 19.276
*N *11244:8 *C 63.660 19.216
*N *11244:9 *C 63.660 19.216
*N *11244:10 *C 64.572 19.216
*N *11244:11 *C 64.572 19.260
*N *11244:12 *C 64.572 20.825
*N *11244:13 *C 64.572 20.893

*CAP
0 *33:Q 0.01638729
1 *41:A2 0.001
2 *35:A2 0.01995339
3 *11244:3 0.0137272
4 *11244:4 0.01032183
5 *11244:5 0.01276738
6 *11244:6 0.1957279
7 *11244:7 0.01297527
8 *11244:8 0.008296872
9 *11244:9 0.03795943
10 *11244:10 0.2380055
11 *11244:11 0.07474252
12 *11244:12 0.07563297
13 *11244:13 0.0101611

*RES
0 *33:Q *11244:13 0.285
1 *11244:11 *11244:10 0.25
2 *11244:10 *11244:9 1.628572
3 *11244:10 *11244:6 8.414287
4 *11244:13 *11244:12 0.5
5 *11244:12 *11244:11 2.901786
6 *11244:5 *11244:4 0.1
7 *11244:6 *11244:5 0.25
8 *11244:3 *35:A2 0.08181819
9 *11244:4 *11244:3 0.5
10 *11244:8 *11244:7 0.1266667
11 *11244:9 *11244:8 0.25
12 *11244:7 *41:A2 0.5

*END

*D_NET *11245 4.976367 //LENGTH 54.930 DR

*CONN
*I *279:Y O *L 0.000 *C 43.444 61.415
*I *266:A2 I *L 0.512 *C 41.025 63.052
*I *264:A2 I *L 0.512 *C 36.908 60.912
*I *261:A2 I *L 0.512 *C 30.372 63.065
*I *257:A2 I *L 0.512 *C 22.696 67.697
*I *255:A1 I *L 0.513 *C 20.809 59.404
*I *271:A2 I *L 0.512 *C 20.416 54.321
*I *269:A2 I *L 0.512 *C 22.065 47.536
*I *259:A2 I *L 0.512 *C 25.888 64.353
*N *11245:9 *C 25.964 64.298
*N *11245:10 *C 25.964 64.297
*N *11245:11 *C 22.012 47.366
*N *11245:12 *C 22.012 47.488
*N *11245:13 *C 22.012 47.488
*N *11245:14 *C 22.012 47.488
*N *11245:15 *C 20.492 47.488
*N *11245:16 *C 20.492 47.532
*N *11245:17 *C 20.492 54.266
*N *11245:18 *C 20.492 54.236
*N *11245:19 *C 20.644 54.236
*N *11245:20 *C 20.644 59.100
*N *11245:21 *C 20.796 59.100
*N *11245:22 *C 20.856 59.404
*N *11245:23 *C 20.856 59.404
*N *11245:24 *C 20.796 60.164
*N *11245:25 *C 21.708 60.164
*N *11245:26 *C 21.708 63.861
*N *11245:27 *C 21.708 63.904
*N *11245:28 *C 22.772 67.642
*N *11245:29 *C 22.772 67.641
*N *11245:30 *C 22.772 63.948
*N *11245:31 *C 22.772 63.904
*N *11245:32 *C 25.964 63.904
*N *11245:33 *C 25.964 63.904
*N *11245:34 *C 25.964 63.036
*N *11245:35 *C 25.964 62.992
*N *11245:36 *C 30.372 63.112
*N *11245:37 *C 30.372 63.112
*N *11245:38 *C 30.372 62.992
*N *11245:39 *C 30.372 62.992
*N *11245:40 *C 36.452 62.992
*N *11245:41 *C 36.452 62.949
*N *11245:42 *C 36.452 61.028
*N *11245:43 *C 36.452 60.984
*N *11245:44 *C 36.908 60.742
*N *11245:45 *C 36.908 60.864
*N *11245:46 *C 36.908 60.864
*N *11245:47 *C 36.908 60.864
*N *11245:48 *C 41.012 60.924
*N *11245:49 *C 41.072 63.052
*N *11245:50 *C 41.072 63.052
*N *11245:51 *C 41.012 61.212
*N *11245:52 *C 41.026 61.228
*N *11245:53 *C 43.444 61.168
*N *11245:54 *C 43.444 61.211
*N *11245:55 *C 43.444 61.373

*CAP
0 *279:Y 0.001
1 *266:A2 0.01361024
2 *264:A2 0.01492239
3 *261:A2 0.01401167
4 *257:A2 0.01858148
5 *255:A1 0.0135786
6 *271:A2 0.0193744
7 *269:A2 0.01600268
8 *259:A2 0.01920656
9 *11245:9 0.01298037
10 *11245:10 0.02682928
11 *11245:11 0.01817287
12 *11245:12 0.00977648
13 *11245:13 0.01192713
14 *11245:14 0.07284133
15 *11245:15 0.06991702
16 *11245:16 0.3468198
17 *11245:17 0.0131482
18 *11245:18 0.3570459
19 *11245:19 0.2179829
20 *11245:20 0.2172006
21 *11245:21 0.0255376
22 *11245:22 0.007352407
23 *11245:23 0.05636315
24 *11245:24 0.08473971
25 *11245:25 0.206728
26 *11245:26 0.1525027
27 *11245:27 0.04504608
28 *11245:28 0.01235529
29 *11245:29 0.2336169
30 *11245:30 0.2327264
31 *11245:31 0.1552305
32 *11245:32 0.1160459
33 *11245:33 0.1148454
34 *11245:34 0.07460345
35 *11245:35 0.1777094
36 *11245:36 0.007785477
37 *11245:37 0.0112132
38 *11245:38 0.01018577
39 *11245:39 0.3857806
40 *11245:40 0.2145008
41 *11245:41 0.1040634
42 *11245:42 0.1040634
43 *11245:43 0.02745627
44 *11245:44 0.01194096
45 *11245:45 0.008696194
46 *11245:46 0.005274422
47 *11245:47 0.2045128
48 *11245:48 0.1898009
49 *11245:49 0.007384043
50 *11245:50 0.1351435
51 *11245:51 0.1261448
52 *11245:52 0.09918715
53 *11245:53 0.09575575
54 *11245:54 0.01399214
55 *11245:55 0.0131531

*RES
0 *279:Y *11245:55 0.5
1 *11245:30 *11245:29 6.595536
2 *11245:31 *11245:30 0.25
3 *11245:31 *11245:27 1.9
4 *11245:28 *257:A2 0.2416667
5 *11245:29 *11245:28 0.5
6 *11245:26 *11245:25 6.85
7 *11245:27 *11245:26 0.25
8 *11245:22 *255:A1 0.08181819
9 *11245:23 *11245:22 0.5
10 *11245:23 *11245:21 0.5428572
11 *11245:41 *11245:40 0.25
12 *11245:40 *11245:39 10.85714
13 *11245:42 *11245:41 3.430357
14 *11245:43 *11245:42 0.25
15 *11245:16 *11245:15 0.25
16 *11245:15 *11245:14 2.714286
17 *11245:13 *11245:12 0.5
18 *11245:13 *11245:11 0.2033333
19 *11245:14 *11245:13 0.25
20 *11245:12 *269:A2 0.08181819
21 *11245:34 *11245:33 1.550893
22 *11245:35 *11245:34 0.25
23 *11245:33 *11245:32 0.25
24 *11245:33 *11245:10 0.7017858
25 *11245:32 *11245:31 5.700001
26 *11245:54 *11245:53 0.25
27 *11245:53 *11245:52 4.31875
28 *11245:55 *11245:54 0.27
29 *11245:9 *259:A2 0.2416667
30 *11245:10 *11245:9 0.5
31 *11245:46 *11245:45 0.5
32 *11245:46 *11245:44 0.2033334
33 *11245:47 *11245:46 0.25
34 *11245:47 *11245:43 0.8142858
35 *11245:45 *264:A2 0.14
36 *11245:38 *11245:37 0.1916667
37 *11245:39 *11245:38 0.25
38 *11245:39 *11245:35 7.871428
39 *11245:36 *261:A2 0.08181819
40 *11245:37 *11245:36 0.5
41 *11245:17 *271:A2 0.2416667
42 *11245:18 *11245:17 0.5
43 *11245:18 *11245:16 11.97232
44 *11245:51 *11245:50 3.286607
45 *11245:52 *11245:51 0.25
46 *11245:52 *11245:48 0.5428572
47 *11245:49 *266:A2 0.08181819
48 *11245:50 *11245:49 0.5
49 *11245:19 *11245:18 0.2714286
50 *11245:20 *11245:19 8.685716
51 *11245:21 *11245:20 0.2785715
52 *11245:24 *11245:23 1.357143
53 *11245:25 *11245:24 1.628571
54 *11245:48 *11245:47 7.328572

*END

*D_NET *11246 1.002058 //LENGTH 10.165 DR

*CONN
*I *293:Y O *L 0.000 *C 47.340 29.238
*I *189:A I *L 0.588 *C 45.724 21.100
*N *11246:2 *C 45.724 21.144
*N *11246:3 *C 45.724 28.597
*N *11246:4 *C 45.724 28.640
*N *11246:5 *C 47.244 28.640
*N *11246:6 *C 47.244 28.684
*N *11246:7 *C 47.244 29.132

*CAP
0 *293:Y 0.001
1 *189:A 0.001
2 *11246:2 0.3976533
3 *11246:3 0.3952063
4 *11246:4 0.06726246
5 *11246:5 0.0677396
6 *11246:6 0.03651777
7 *11246:7 0.03567873

*RES
0 *293:Y *11246:7 0.5
1 *11246:7 *11246:6 0.8
2 *11246:6 *11246:5 0.25
3 *11246:5 *11246:4 2.714286
4 *11246:3 *11246:2 13.30893
5 *11246:4 *11246:3 0.25
6 *11246:2 *189:A 0.5

*END

*D_NET *11247 0.4118684 //LENGTH 4.394 DR

*CONN
*I *80:Q O *L 0.000 *C 62.626 52.888
*I *57:A3 I *L 0.459 *C 63.812 54.579
*I *54:A1 I *L 0.540 *C 64.420 52.843
*N *11247:3 *C 62.621 52.960
*N *11247:4 *C 64.420 52.843
*N *11247:5 *C 64.420 52.960
*N *11247:6 *C 64.420 52.960
*N *11247:7 *C 63.812 54.600
*N *11247:8 *C 63.812 54.557
*N *11247:9 *C 63.812 53.004
*N *11247:10 *C 63.812 52.960
*N *11247:11 *C 62.621 52.960
*N *11247:12 *C 62.621 52.960

*CAP
0 *80:Q 0.01336825
1 *57:A3 0.01257861
2 *54:A1 0.001
3 *11247:3 0.02002337
4 *11247:4 0.02241961
5 *11247:5 0.01474945
6 *11247:6 0.02807351
7 *11247:7 0.006352413
8 *11247:8 0.0901567
9 *11247:9 0.08926625
10 *11247:10 0.07090773
11 *11247:11 0.0419725
12 *11247:12 0.001

*RES
0 *80:Q *11247:12 0.5
1 *80:Q *11247:3 0.3333334
2 *11247:9 *11247:8 2.773214
3 *11247:10 *11247:9 0.25
4 *11247:10 *11247:6 1.085714
5 *11247:7 *57:A3 0.08181817
6 *11247:8 *11247:7 0.5
7 *11247:12 *11247:11 0.25
8 *11247:11 *11247:10 2.126786
9 *11247:5 *11247:4 0.1916667
10 *11247:6 *11247:5 0.25
11 *11247:4 *54:A1 0.5

*END

*D_NET *11248 1.520345 //LENGTH 17.327 DR

*CONN
*I *65:Y O *L 0.000 *C 66.092 45.860
*I *85:A1 I *L 0.603 *C 63.204 47.671
*I *82:A3 I *L 0.554 *C 63.660 41.760
*I *89:A I *L 0.588 *C 70.348 41.164
*N *11248:4 *C 70.348 41.208
*N *11248:5 *C 70.348 41.669
*N *11248:6 *C 70.348 41.712
*N *11248:7 *C 63.660 41.712
*N *11248:8 *C 63.660 41.712
*N *11248:9 *C 63.659 41.772
*N *11248:10 *C 63.508 41.772
*N *11248:11 *C 63.204 47.671
*N *11248:12 *C 63.356 47.700
*N *11248:13 *C 63.356 45.724
*N *11248:14 *C 63.508 45.621
*N *11248:15 *C 63.508 45.664
*N *11248:16 *C 66.092 45.664
*N *11248:17 *C 66.092 45.664
*N *11248:18 *C 66.092 45.775

*CAP
0 *65:Y 0.01473871
1 *85:A1 0.001
2 *82:A3 0.01375586
3 *89:A 0.001
4 *11248:4 0.04387094
5 *11248:5 0.04142394
6 *11248:6 0.3066133
7 *11248:7 0.3062315
8 *11248:8 0.007529663
9 *11248:9 0.001
10 *11248:10 0.1797449
11 *11248:11 0.01026827
12 *11248:12 0.1066257
13 *11248:13 0.1068923
14 *11248:14 0.1720762
15 *11248:15 0.09771712
16 *11248:16 0.09736971
17 *11248:17 0.001
18 *11248:18 0.01148725

*RES
0 *65:Y *11248:18 0.08181819
1 *11248:14 *11248:13 0.2714286
2 *11248:14 *11248:10 6.872322
3 *11248:15 *11248:14 0.25
4 *11248:17 *11248:16 0.25
5 *11248:16 *11248:15 4.614286
6 *11248:18 *11248:17 0.5
7 *11248:8 *82:A3 0.08181819
8 *11248:9 *11248:8 0.5
9 *11248:9 *11248:7 0.25
10 *11248:11 *85:A1 0.5
11 *11248:7 *11248:6 12.03572
12 *11248:5 *11248:4 0.8232144
13 *11248:6 *11248:5 0.25
14 *11248:4 *89:A 0.5
15 *11248:12 *11248:11 0.2714286
16 *11248:13 *11248:12 3.528571
17 *11248:10 *11248:9 0.2696429

*END

*D_NET *11249 2.040429 //LENGTH 25.173 DR

*CONN
*I *71:Q O *L 0.000 *C 69.010 24.150
*I *100:A1 I *L 0.513 *C 68.372 47.852
*N *11249:2 *C 68.372 47.852
*N *11249:3 *C 68.372 47.912
*N *11249:4 *C 69.284 47.792
*N *11249:5 *C 69.284 47.749
*N *11249:6 *C 69.224 24.140
*N *11249:7 *C 69.179 24.140

*CAP
0 *71:Q 0.01763222
1 *100:A1 0.001
2 *11249:2 0.001
3 *11249:3 0.04316735
4 *11249:4 0.04055271
5 *11249:5 0.9566911
6 *11249:6 0.9689796
7 *11249:7 0.01140603

*RES
0 *71:Q *11249:7 0.338
1 *11249:2 *100:A1 0.5
2 *11249:3 *11249:2 0.25
3 *11249:5 *11249:4 0.25
4 *11249:4 *11249:3 1.628572
5 *11249:7 *11249:6 0.5
6 *11249:6 *11249:5 42.15804

*END

*D_NET *11250 0.5502993 //LENGTH 5.673 DR

*CONN
*I *77:Q O *L 0.000 *C 70.044 45.024
*I *100:A3 I *L 0.554 *C 68.888 48.460
*N *11250:2 *C 68.888 48.460
*N *11250:3 *C 68.828 46.940
*N *11250:4 *C 68.676 46.940
*N *11250:5 *C 68.676 44.948
*N *11250:6 *C 68.676 44.904
*N *11250:7 *C 70.044 44.904
*N *11250:8 *C 70.044 44.904
*N *11250:9 *C 70.044 45.024

*CAP
0 *77:Q 0.001
1 *100:A3 0.001
2 *11250:2 0.09139905
3 *11250:3 0.09495141
4 *11250:4 0.1102254
5 *11250:5 0.09492867
6 *11250:6 0.06255594
7 *11250:7 0.05993846
8 *11250:8 0.01409415
9 *11250:9 0.02020618

*RES
0 *77:Q *11250:9 0.5
1 *11250:2 *100:A3 0.5
2 *11250:5 *11250:4 3.821429
3 *11250:6 *11250:5 0.25
4 *11250:8 *11250:7 0.25
5 *11250:7 *11250:6 2.442857
6 *11250:9 *11250:8 0.365
7 *11250:4 *11250:3 0.2714286
8 *11250:3 *11250:2 2.714286

*END

*D_NET *11251 10.36944 //LENGTH 111.223 DR

*CONN
*I *39:Y O *L 0.000 *C 57.884 21.708
*I *221:RSTB I *L 0.914 *C 46.272 25.052
*I *107:RSTB I *L 0.758 *C 44.778 32.118
*I *108:RSTB I *L 0.758 *C 45.679 35.462
*I *106:D I *L 0.613 *C 46.484 40.977
*I *235:RSTB I *L 0.914 *C 41.408 25.052
*I *168:RSTB I *L 0.914 *C 34.112 22.012
*I *165:RSTB I *L 0.914 *C 31.224 25.356
*I *167:RSTB I *L 0.914 *C 27.272 22.012
*I *166:RSTB I *L 0.914 *C 25.144 25.356
*I *164:RSTB I *L 0.914 *C 24.536 28.700
*I *163:RSTB I *L 0.914 *C 23.624 35.084
*I *162:RSTB I *L 0.914 *C 22.924 38.428
*I *159:RSTB I *L 0.914 *C 22.560 45.116
*I *244:RSTB I *L 0.914 *C 21.192 55.452
*I *245:RSTB I *L 0.914 *C 21.800 51.804
*I *160:RSTB I *L 0.914 *C 27.728 45.420
*I *161:RSTB I *L 0.914 *C 32.288 45.420
*N *11251:18 *C 32.288 45.420
*N *11251:19 *C 32.348 45.925
*N *11251:20 *C 32.348 45.968
*N *11251:21 *C 27.728 45.420
*N *11251:22 *C 27.788 45.925
*N *11251:23 *C 27.788 45.968
*N *11251:24 *C 21.800 51.804
*N *11251:25 *C 21.192 55.452
*N *11251:26 *C 21.252 51.788
*N *11251:27 *C 21.252 51.744
*N *11251:28 *C 21.860 51.744
*N *11251:29 *C 21.860 51.701
*N *11251:30 *C 21.860 46.012
*N *11251:31 *C 21.860 45.968
*N *11251:32 *C 22.924 45.968
*N *11251:33 *C 22.924 45.925
*N *11251:34 *C 22.560 45.116
*N *11251:35 *C 22.620 44.508
*N *11251:36 *C 22.924 44.508
*N *11251:37 *C 22.924 38.428
*N *11251:38 *C 22.924 35.068
*N *11251:39 *C 22.924 35.024
*N *11251:40 *C 23.624 35.084
*N *11251:41 *C 23.684 35.024
*N *11251:42 *C 23.684 35.024
*N *11251:43 *C 24.444 35.024
*N *11251:44 *C 24.444 34.981
*N *11251:45 *C 24.536 28.700
*N *11251:46 *C 24.596 25.948
*N *11251:47 *C 24.596 25.904
*N *11251:48 *C 25.204 25.904
*N *11251:49 *C 25.204 25.861
*N *11251:50 *C 25.144 25.356
*N *11251:51 *C 25.204 25.036
*N *11251:52 *C 25.204 24.992
*N *11251:53 *C 27.272 22.012
*N *11251:54 *C 27.332 24.949
*N *11251:55 *C 27.332 24.992
*N *11251:56 *C 31.224 25.356
*N *11251:57 *C 31.284 25.036
*N *11251:58 *C 31.284 24.992
*N *11251:59 *C 34.156 22.012
*N *11251:60 *C 34.476 22.012
*N *11251:61 *C 34.476 24.949
*N *11251:62 *C 34.476 24.992
*N *11251:63 *C 41.408 25.052
*N *11251:64 *C 41.468 24.992
*N *11251:65 *C 41.468 24.992
*N *11251:66 *C 46.484 40.977
*N *11251:67 *C 46.484 40.800
*N *11251:68 *C 46.484 40.800
*N *11251:69 *C 45.876 40.800
*N *11251:70 *C 45.876 40.757
*N *11251:71 *C 45.816 35.388
*N *11251:72 *C 45.816 35.388
*N *11251:73 *C 44.778 32.044
*N *11251:74 *C 44.752 32.044
*N *11251:75 *C 44.812 31.984
*N *11251:76 *C 44.812 31.984
*N *11251:77 *C 45.876 31.984
*N *11251:78 *C 45.876 31.984
*N *11251:79 *C 45.876 25.036
*N *11251:80 *C 45.876 24.992
*N *11251:81 *C 46.272 25.052
*N *11251:82 *C 46.332 24.992
*N *11251:83 *C 46.332 24.992
*N *11251:84 *C 57.732 24.992
*N *11251:85 *C 57.732 24.949
*N *11251:86 *C 57.672 21.708
*N *11251:87 *C 57.717 21.708

*CAP
0 *39:Y 0.02380566
1 *221:RSTB 0.001
2 *107:RSTB 0.02056354
3 *108:RSTB 0.009653355
4 *106:D 0.001
5 *235:RSTB 0.001
6 *168:RSTB 0.001
7 *165:RSTB 0.001
8 *167:RSTB 0.001
9 *166:RSTB 0.001
10 *164:RSTB 0.001
11 *163:RSTB 0.001
12 *162:RSTB 0.001
13 *159:RSTB 0.001
14 *244:RSTB 0.001
15 *245:RSTB 0.001
16 *160:RSTB 0.001
17 *161:RSTB 0.001
18 *11251:18 0.05584808
19 *11251:19 0.037048
20 *11251:20 0.1937907
21 *11251:21 0.03840253
22 *11251:22 0.02423461
23 *11251:23 0.3981816
24 *11251:24 0.01545766
25 *11251:25 0.1890606
26 *11251:26 0.1738794
27 *11251:27 0.02752459
28 *11251:28 0.02752459
29 *11251:29 0.3124307
30 *11251:30 0.3030907
31 *11251:31 0.06227891
32 *11251:32 0.2686235
33 *11251:33 0.06865576
34 *11251:34 0.04144453
35 *11251:35 0.04810033
36 *11251:36 0.4039479
37 *11251:37 0.4820137
38 *11251:38 0.1656724
39 *11251:39 0.05260796
40 *11251:40 0.01719904
41 *11251:41 0.01070147
42 *11251:42 0.09425183
43 *11251:43 0.04917577
44 *11251:44 0.3101199
45 *11251:45 0.4643087
46 *11251:46 0.1340939
47 *11251:47 0.03453774
48 *11251:48 0.03453774
49 *11251:49 0.02122681
50 *11251:50 0.05504088
51 *11251:51 0.01306227
52 *11251:52 0.103158
53 *11251:53 0.1555054
54 *11251:54 0.1425845
55 *11251:55 0.2810593
56 *11251:56 0.03088492
57 *11251:57 0.01595277
58 *11251:58 0.3213401
59 *11251:59 0.01767951
60 *11251:60 0.1567029
61 *11251:61 0.1265107
62 *11251:62 0.4110671
63 *11251:63 0.01515834
64 *11251:64 0.008577311
65 *11251:65 0.4416284
66 *11251:66 0.01521744
67 *11251:67 0.01235273
68 *11251:68 0.03636628
69 *11251:69 0.03806673
70 *11251:70 0.2724243
71 *11251:71 0.01430191
72 *11251:72 0.445063
73 *11251:73 0.01433735
74 *11251:74 0.0269204
75 *11251:75 0.01526616
76 *11251:76 0.05081129
77 *11251:77 0.05105139
78 *11251:78 0.5368616
79 *11251:79 0.374455
80 *11251:80 0.1986059
81 *11251:81 0.01781364
82 *11251:82 0.01019036
83 *11251:83 0.5239116
84 *11251:84 0.503078
85 *11251:85 0.1288048
86 *11251:86 0.1410521
87 *11251:87 0.01757946

*RES
0 *39:Y *11251:87 0.5680001
1 *11251:45 *164:RSTB 0.5
2 *11251:45 *11251:44 11.21518
3 *11251:22 *11251:21 0.9008929
4 *11251:23 *11251:22 0.25
5 *11251:23 *11251:20 8.142858
6 *11251:21 *160:RSTB 0.5
7 *11251:38 *11251:37 6.000893
8 *11251:39 *11251:38 0.25
9 *11251:44 *11251:43 0.25
10 *11251:43 *11251:42 1.357143
11 *11251:46 *11251:45 4.915179
12 *11251:47 *11251:46 0.25
13 *11251:49 *11251:48 0.25
14 *11251:48 *11251:47 1.085714
15 *11251:30 *11251:29 10.15893
16 *11251:31 *11251:30 0.25
17 *11251:71 *108:RSTB 0.01
18 *11251:72 *11251:71 0.5
19 *11251:72 *11251:70 9.586608
20 *11251:51 *11251:50 0.5723215
21 *11251:52 *11251:51 0.25
22 *11251:79 *11251:78 12.40804
23 *11251:80 *11251:79 0.25
24 *11251:80 *11251:65 7.871428
25 *11251:33 *11251:32 0.25
26 *11251:32 *11251:31 1.9
27 *11251:32 *11251:23 8.685715
28 *11251:64 *11251:63 0.1
29 *11251:65 *11251:64 0.25
30 *11251:65 *11251:62 12.48572
31 *11251:63 *235:RSTB 0.5
32 *11251:82 *11251:81 0.1
33 *11251:83 *11251:82 0.25
34 *11251:83 *11251:80 0.8142858
35 *11251:81 *221:RSTB 0.5
36 *11251:29 *11251:28 0.25
37 *11251:29 *11251:24 0.1725
38 *11251:28 *11251:27 1.085714
39 *11251:26 *11251:25 6.54375
40 *11251:27 *11251:26 0.25
41 *11251:25 *244:RSTB 0.5
42 *11251:61 *11251:60 5.24375
43 *11251:62 *11251:61 0.25
44 *11251:62 *11251:58 5.7
45 *11251:59 *168:RSTB 0.5
46 *11251:24 *245:RSTB 0.5
47 *11251:54 *11251:53 5.24375
48 *11251:55 *11251:54 0.25
49 *11251:55 *11251:52 3.8
50 *11251:53 *167:RSTB 0.5
51 *11251:50 *166:RSTB 0.5
52 *11251:50 *11251:49 0.9008929
53 *11251:41 *11251:40 0.1
54 *11251:42 *11251:41 0.25
55 *11251:42 *11251:39 1.357143
56 *11251:40 *163:RSTB 0.5
57 *11251:37 *162:RSTB 1
58 *11251:37 *11251:36 10.85714
59 *11251:19 *11251:18 0.9008929
60 *11251:20 *11251:19 0.25
61 *11251:18 *161:RSTB 0.5
62 *11251:57 *11251:56 0.5723215
63 *11251:58 *11251:57 0.25
64 *11251:58 *11251:55 7.057143
65 *11251:56 *165:RSTB 0.5
66 *11251:34 *159:RSTB 0.5
67 *11251:78 *11251:77 0.25
68 *11251:78 *11251:72 6.078571
69 *11251:77 *11251:76 1.921429
70 *11251:75 *11251:74 0.1
71 *11251:76 *11251:75 0.25
72 *11251:73 *107:RSTB 0.2716667
73 *11251:74 *11251:73 0.5
74 *11251:70 *11251:69 0.25
75 *11251:69 *11251:68 1.085714
76 *11251:67 *11251:66 0.1916667
77 *11251:68 *11251:67 0.25
78 *11251:66 *106:D 0.5
79 *11251:85 *11251:84 0.25
80 *11251:84 *11251:83 20.35715
81 *11251:87 *11251:86 0.5
82 *11251:86 *11251:85 5.786608
83 *11251:35 *11251:34 1.085714
84 *11251:36 *11251:35 0.5428572
85 *11251:36 *11251:33 2.529464
86 *11251:60 *11251:59 0.5723215

*END

*D_NET *11252 2.025006 //LENGTH 18.748 DR

*CONN
*I *68:Y O *L 0.000 *C 73.236 54.727
*I *102:A I *L 0.588 *C 72.932 47.852
*I *98:A1 I *L 0.513 *C 72.312 46.028
*I *56:A2 I *L 0.558 *C 68.681 52.923
*I *50:A3 I *L 0.522 *C 67.156 54.348
*N *11252:5 *C 67.156 54.303
*N *11252:6 *C 67.156 54.303
*N *11252:7 *C 67.156 54.176
*N *11252:8 *C 67.156 54.176
*N *11252:9 *C 68.745 52.952
*N *11252:10 *C 68.745 52.952
*N *11252:11 *C 68.676 52.868
*N *11252:12 *C 68.524 52.868
*N *11252:13 *C 68.524 54.253
*N *11252:14 *C 68.524 54.296
*N *11252:15 *C 72.264 46.028
*N *11252:16 *C 72.264 46.028
*N *11252:17 *C 72.932 47.792
*N *11252:18 *C 72.932 47.792
*N *11252:19 *C 72.324 47.792
*N *11252:20 *C 72.324 47.792
*N *11252:21 *C 72.324 54.133
*N *11252:22 *C 72.324 54.176
*N *11252:23 *C 73.236 54.176
*N *11252:24 *C 73.236 54.220
*N *11252:25 *C 73.236 54.684

*CAP
0 *68:Y 0.001
1 *102:A 0.001
2 *98:A1 0.01814925
3 *56:A2 0.02028298
4 *50:A3 0.01405826
5 *11252:5 0.007832062
6 *11252:6 0.01095525
7 *11252:7 0.01063513
8 *11252:8 0.07603975
9 *11252:9 0.01405678
10 *11252:10 0.01955529
11 *11252:11 0.01961501
12 *11252:12 0.1013928
13 *11252:13 0.08466841
14 *11252:14 0.2354213
15 *11252:15 0.01192306
16 *11252:16 0.09451711
17 *11252:17 0.001
18 *11252:18 0.02840874
19 *11252:19 0.02840874
20 *11252:20 0.4925179
21 *11252:21 0.3957156
22 *11252:22 0.2078526
23 *11252:23 0.04799436
24 *11252:24 0.04142236
25 *11252:25 0.04058333

*RES
0 *68:Y *11252:25 0.5
1 *11252:15 *98:A1 0.08181819
2 *11252:16 *11252:15 0.5
3 *11252:13 *11252:12 2.735714
4 *11252:14 *11252:13 0.25
5 *11252:14 *11252:8 2.442857
6 *11252:9 *56:A2 0.2833334
7 *11252:10 *11252:9 0.5
8 *11252:20 *11252:19 0.25
9 *11252:20 *11252:16 3.15
10 *11252:19 *11252:18 1.085714
11 *11252:17 *102:A 0.5
12 *11252:18 *11252:17 0.25
13 *11252:21 *11252:20 11.32232
14 *11252:22 *11252:21 0.25
15 *11252:22 *11252:14 6.785715
16 *11252:24 *11252:23 0.25
17 *11252:23 *11252:22 1.628572
18 *11252:25 *11252:24 0.8285715
19 *11252:7 *11252:6 0.1916667
20 *11252:8 *11252:7 0.25
21 *11252:5 *50:A3 0.08181819
22 *11252:6 *11252:5 0.5
23 *11252:12 *11252:11 0.2714286
24 *11252:11 *11252:10 0.15

*END

*D_NET *11253 3.756766 //LENGTH 34.076 DR

*CONN
*I *45:Y O *L 0.000 *C 72.476 66.573
*I *43:A1 I *L 0.552 *C 72.312 70.996
*I *101:A I *L 0.588 *C 72.476 52.716
*I *99:A1 I *L 0.513 *C 71.868 51.184
*I *65:A I *L 0.588 *C 66.396 46.028
*I *100:A2 I *L 0.512 *C 68.524 47.536
*N *11253:6 *C 68.524 47.488
*N *11253:7 *C 66.396 46.028
*N *11253:8 *C 66.244 46.028
*N *11253:9 *C 66.244 47.445
*N *11253:10 *C 66.244 47.488
*N *11253:11 *C 68.524 47.488
*N *11253:12 *C 68.524 47.488
*N *11253:13 *C 68.524 50.909
*N *11253:14 *C 68.524 50.952
*N *11253:15 *C 71.868 50.892
*N *11253:16 *C 71.868 51.014
*N *11253:17 *C 71.868 51.136
*N *11253:18 *C 71.868 51.136
*N *11253:19 *C 71.882 51.196
*N *11253:20 *C 72.476 51.136
*N *11253:21 *C 72.476 51.180
*N *11253:22 *C 72.476 52.716
*N *11253:23 *C 72.476 57.477
*N *11253:24 *C 72.476 57.551
*N *11253:25 *C 72.476 57.913
*N *11253:26 *C 72.476 57.988
*N *11253:27 *C 72.264 70.956
*N *11253:28 *C 72.264 70.956
*N *11253:29 *C 72.324 66.548
*N *11253:30 *C 72.476 66.535
*N *11253:31 *C 72.536 66.548

*CAP
0 *45:Y 0.0150327
1 *43:A1 0.01408808
2 *101:A 0.001
3 *99:A1 0.0130259
4 *65:A 0.001
5 *100:A2 0.01789621
6 *11253:6 0.01167001
7 *11253:7 0.01008687
8 *11253:8 0.072869
9 *11253:9 0.05739154
10 *11253:10 0.08515573
11 *11253:11 0.08522744
12 *11253:12 0.2021449
13 *11253:13 0.202217
14 *11253:14 0.15918
15 *11253:15 0.1661796
16 *11253:16 0.01805408
17 *11253:17 0.006799703
18 *11253:18 0.01169093
19 *11253:19 0.03227026
20 *11253:20 0.02834613
21 *11253:21 0.09494252
22 *11253:22 0.3446906
23 *11253:23 0.2342289
24 *11253:24 0.01529233
25 *11253:25 0.01529233
26 *11253:26 0.6389182
27 *11253:27 0.007861885
28 *11253:28 0.2601995
29 *11253:29 0.2725983
30 *11253:30 0.6526086
31 *11253:31 0.008806504

*RES
0 *45:Y *11253:31 0.1916667
1 *11253:31 *11253:30 0.5
2 *11253:30 *11253:29 0.2714286
3 *11253:30 *11253:26 15.2625
4 *11253:13 *11253:12 6.108036
5 *11253:14 *11253:13 0.25
6 *11253:12 *11253:11 0.25
7 *11253:12 *11253:6 0.5
8 *11253:11 *11253:10 4.071429
9 *11253:9 *11253:8 2.529464
10 *11253:10 *11253:9 0.25
11 *11253:7 *65:A 0.5
12 *11253:21 *11253:20 0.25
13 *11253:20 *11253:19 1.061607
14 *11253:27 *43:A1 0.08181819
15 *11253:28 *11253:27 0.5
16 *11253:22 *101:A 0.5
17 *11253:22 *11253:21 2.74375
18 *11253:18 *11253:17 0.5
19 *11253:18 *11253:16 0.2033333
20 *11253:19 *11253:18 0.25
21 *11253:19 *11253:15 0.5500001
22 *11253:17 *99:A1 0.08181819
23 *11253:26 *11253:25 0.25
24 *11253:25 *11253:24 0.6464286
25 *11253:23 *11253:22 8.721429
26 *11253:24 *11253:23 0.25
27 *11253:6 *100:A2 0.08181819
28 *11253:8 *11253:7 0.2714286
29 *11253:29 *11253:28 7.871429
30 *11253:15 *11253:14 5.971429

*END

*D_NET *11254 1.079529 //LENGTH 12.578 DR

*CONN
*I *55:Y O *L 0.000 *C 71.320 54.413
*I *64:D I *L 0.547 *C 59.252 54.660
*N *11254:2 *C 59.252 54.660
*N *11254:3 *C 59.252 54.480
*N *11254:4 *C 59.252 54.480
*N *11254:5 *C 71.260 54.480
*N *11254:6 *C 71.260 54.480
*N *11254:7 *C 71.320 54.413

*CAP
0 *55:Y 0.001
1 *64:D 0.001
2 *11254:2 0.01044554
3 *11254:3 0.009468908
4 *11254:4 0.5083426
5 *11254:5 0.5127066
6 *11254:6 0.01205138
7 *11254:7 0.02451419

*RES
0 *55:Y *11254:7 0.5
1 *11254:2 *64:D 0.5
2 *11254:3 *11254:2 0.325
3 *11254:4 *11254:3 0.25
4 *11254:6 *11254:5 0.25
5 *11254:5 *11254:4 21.53572
6 *11254:7 *11254:6 0.1333334

*END

*D_NET *11255 0.3467661 //LENGTH 4.647 DR

*CONN
*I *51:Y O *L 0.000 *C 62.409 57.847
*I *63:D I *L 0.547 *C 58.492 58.004
*N *11255:2 *C 62.444 57.702
*N *11255:3 *C 58.492 58.004
*N *11255:4 *C 58.492 57.824
*N *11255:5 *C 58.492 57.824
*N *11255:6 *C 62.444 57.824
*N *11255:7 *C 62.444 57.778
*N *11255:8 *C 62.444 57.817

*CAP
0 *51:Y 0.01323683
1 *63:D 0.001
2 *11255:2 0.01039145
3 *11255:3 0.008975409
4 *11255:4 0.0079529
5 *11255:5 0.14633
6 *11255:6 0.1508688
7 *11255:7 0.001
8 *11255:8 0.007010636

*RES
0 *51:Y *11255:8 0.08181819
1 *11255:3 *63:D 0.5
2 *11255:4 *11255:3 0.1916667
3 *11255:5 *11255:4 0.25
4 *11255:7 *11255:6 0.25
5 *11255:7 *11255:2 0.1266667
6 *11255:6 *11255:5 7.057143
7 *11255:8 *11255:7 0.5

*END

*D_NET *11256 0.2804985 //LENGTH 2.931 DR

*CONN
*I *47:Y O *L 0.000 *C 60.620 61.532
*I *62:D I *L 0.547 *C 59.696 62.596
*N *11256:2 *C 59.648 62.596
*N *11256:3 *C 59.648 62.596
*N *11256:4 *C 59.708 61.516
*N *11256:5 *C 59.708 61.472
*N *11256:6 *C 60.620 61.472
*N *11256:7 *C 60.620 61.472
*N *11256:8 *C 60.560 61.532
*N *11256:9 *C 60.560 61.532

*CAP
0 *47:Y 0.01379002
1 *62:D 0.01319091
2 *11256:2 0.006964716
3 *11256:3 0.0755335
4 *11256:4 0.06589353
5 *11256:5 0.0370292
6 *11256:6 0.0370292
7 *11256:7 0.008752265
8 *11256:8 0.01475131
9 *11256:9 0.007563829

*RES
0 *47:Y *11256:9 0.1916667
1 *11256:2 *62:D 0.08181819
2 *11256:3 *11256:2 0.5
3 *11256:4 *11256:3 1.929464
4 *11256:5 *11256:4 0.25
5 *11256:7 *11256:6 0.25
6 *11256:6 *11256:5 1.628572
7 *11256:9 *11256:8 0.5
8 *11256:8 *11256:7 0.1

*END

*D_NET *11257 0.7489312 //LENGTH 7.285 DR

*CONN
*I *62:QN O *L 0.000 *C 63.052 63.508
*I *67:A1 I *L 1.218 *C 64.724 68.044
*I *61:A2 I *L 0.542 *C 64.876 64.612
*N *11257:3 *C 64.876 64.632
*N *11257:4 *C 64.876 64.632
*N *11257:5 *C 64.724 68.001
*N *11257:6 *C 64.724 64.572
*N *11257:7 *C 64.724 64.512
*N *11257:8 *C 63.204 64.512
*N *11257:9 *C 63.204 64.469
*N *11257:10 *C 63.264 63.508
*N *11257:11 *C 63.219 63.508

*CAP
0 *62:QN 0.02422191
1 *67:A1 0.001
2 *61:A2 0.01496523
3 *11257:3 0.008739035
4 *11257:4 0.008927509
5 *11257:5 0.2103522
6 *11257:6 0.2176785
7 *11257:7 0.07094575
8 *11257:8 0.07023579
9 *11257:9 0.04477217
10 *11257:10 0.05909734
11 *11257:11 0.01799572

*RES
0 *62:QN *11257:11 0.3340001
1 *11257:6 *11257:5 6.122322
2 *11257:6 *11257:4 0.2714286
3 *11257:7 *11257:6 0.25
4 *11257:9 *11257:8 0.25
5 *11257:8 *11257:7 2.714286
6 *11257:11 *11257:10 0.5
7 *11257:10 *11257:9 1.715179
8 *11257:5 *67:A1 0.5
9 *11257:3 *61:A2 0.08181819
10 *11257:4 *11257:3 0.5

*END

*D_NET *11258 0.5203181 //LENGTH 4.626 DR

*CONN
*I *63:QN O *L 0.000 *C 62.018 57.483
*I *52:A4 I *L 0.574 *C 63.344 57.924
*I *48:A2 I *L 0.583 *C 63.052 59.432
*N *11258:3 *C 63.052 59.344
*N *11258:4 *C 63.052 59.301
*N *11258:5 *C 63.052 58.796
*N *11258:6 *C 63.204 58.796
*N *11258:7 *C 63.296 57.884
*N *11258:8 *C 63.296 57.884
*N *11258:9 *C 63.356 57.581
*N *11258:10 *C 63.356 57.520
*N *11258:11 *C 61.988 57.520
*N *11258:12 *C 61.988 57.520
*N *11258:13 *C 62.048 57.453
*N *11258:14 *C 62.048 57.453

*CAP
0 *63:QN 0.01618254
1 *52:A4 0.01746077
2 *48:A2 0.0159875
3 *11258:3 0.009761306
4 *11258:4 0.04202955
5 *11258:5 0.05768339
6 *11258:6 0.06511748
7 *11258:7 0.01123457
8 *11258:8 0.08736734
9 *11258:9 0.02112638
10 *11258:10 0.06942086
11 *11258:11 0.07175425
12 *11258:12 0.009473544
13 *11258:13 0.01576226
14 *11258:14 0.009956342

*RES
0 *63:QN *11258:14 0.1916667
1 *11258:7 *52:A4 0.08181819
2 *11258:8 *11258:7 0.5
3 *11258:8 *11258:6 1.628572
4 *11258:3 *48:A2 0.08181819
5 *11258:4 *11258:3 0.5
6 *11258:9 *11258:8 0.5410714
7 *11258:10 *11258:9 0.25
8 *11258:12 *11258:11 0.25
9 *11258:11 *11258:10 2.442857
10 *11258:14 *11258:13 0.5
11 *11258:13 *11258:12 0.245
12 *11258:5 *11258:4 0.9008929
13 *11258:6 *11258:5 0.2714286

*END

*D_NET *11259 2.470476 //LENGTH 25.038 DR

*CONN
*I *64:QN O *L 0.000 *C 62.748 54.049
*I *57:A2 I *L 0.512 *C 63.964 54.275
*I *48:A1 I *L 0.671 *C 62.900 59.516
*I *60:A2 I *L 0.467 *C 72.322 61.268
*I *46:A1 I *L 0.536 *C 70.958 64.572
*N *11259:5 *C 70.958 64.572
*N *11259:6 *C 71.018 64.512
*N *11259:7 *C 71.018 64.512
*N *11259:8 *C 72.172 64.512
*N *11259:9 *C 72.172 64.469
*N *11259:10 *C 72.172 61.288
*N *11259:11 *C 72.172 61.288
*N *11259:12 *C 72.172 60.604
*N *11259:13 *C 72.172 60.560
*N *11259:14 *C 62.900 60.560
*N *11259:15 *C 62.900 60.517
*N *11259:16 *C 62.900 59.531
*N *11259:17 *C 62.900 59.545
*N *11259:18 *C 62.900 59.403
*N *11259:19 *C 63.964 54.296
*N *11259:20 *C 63.964 54.253
*N *11259:21 *C 63.964 53.916
*N *11259:22 *C 63.964 53.872
*N *11259:23 *C 62.900 53.932
*N *11259:24 *C 62.900 54.145
*N *11259:25 *C 62.900 54.250
*N *11259:26 *C 62.750 54.236
*N *11259:27 *C 62.749 54.122

*CAP
0 *64:QN 0.001
1 *57:A2 0.01649906
2 *48:A1 0.008924084
3 *60:A2 0.01413482
4 *46:A1 0.001
5 *11259:5 0.01622736
6 *11259:6 0.009216242
7 *11259:7 0.04993626
8 *11259:8 0.05059425
9 *11259:9 0.2567747
10 *11259:10 0.02233499
11 *11259:11 0.330178
12 *11259:12 0.05958866
13 *11259:13 0.3479824
14 *11259:14 0.3485889
15 *11259:15 0.06562816
16 *11259:16 0.006848685
17 *11259:17 0.08374337
18 *11259:18 0.277705
19 *11259:19 0.01027287
20 *11259:20 0.03704322
21 *11259:21 0.03615276
22 *11259:22 0.04697566
23 *11259:23 0.05667778
24 *11259:24 0.006006536
25 *11259:25 0.2660963
26 *11259:26 0.03044191
27 *11259:27 0.01390426

*RES
0 *64:QN *11259:27 0.5
1 *11259:25 *11259:24 0.25
2 *11259:25 *11259:18 9.202679
3 *11259:24 *11259:23 0.3803572
4 *11259:21 *11259:20 0.8651787
5 *11259:22 *11259:21 0.25
6 *11259:19 *57:A2 0.08181819
7 *11259:20 *11259:19 0.5
8 *11259:9 *11259:8 0.25
9 *11259:8 *11259:7 2.060714
10 *11259:6 *11259:5 0.1
11 *11259:7 *11259:6 0.25
12 *11259:5 *46:A1 0.5
13 *11259:27 *11259:26 0.1965517
14 *11259:10 *60:A2 0.1758824
15 *11259:11 *11259:10 0.5
16 *11259:11 *11259:9 5.679465
17 *11259:16 *48:A1 0.02727273
18 *11259:17 *11259:16 1
19 *11259:17 *11259:15 1.735714
20 *11259:12 *11259:11 1.222322
21 *11259:13 *11259:12 0.25
22 *11259:15 *11259:14 0.25
23 *11259:14 *11259:13 16.55714
24 *11259:26 *11259:25 0.26875
25 *11259:18 *11259:17 0.2358333
26 *11259:23 *11259:22 1.964286

*END

*D_NET *11260 0.4990813 //LENGTH 6.631 DR

*CONN
*I *44:Y O *L 0.000 *C 67.764 70.196
*I *43:A2 I *L 0.467 *C 72.175 71.288
*N *11260:2 *C 72.112 71.260
*N *11260:3 *C 72.112 71.260
*N *11260:4 *C 72.172 71.200
*N *11260:5 *C 72.172 71.200
*N *11260:6 *C 67.612 71.200
*N *11260:7 *C 67.612 71.157
*N *11260:8 *C 67.552 70.196
*N *11260:9 *C 67.597 70.196

*CAP
0 *44:Y 0.02390982
1 *43:A2 0.01389517
2 *11260:2 0.007668972
3 *11260:3 0.01679032
4 *11260:4 0.01012634
5 *11260:5 0.1579933
6 *11260:6 0.156084
7 *11260:7 0.0398494
8 *11260:8 0.05508035
9 *11260:9 0.01768363

*RES
0 *44:Y *11260:9 0.3340001
1 *11260:9 *11260:8 0.5
2 *11260:8 *11260:7 1.715179
3 *11260:7 *11260:6 0.25
4 *11260:6 *11260:5 8.142858
5 *11260:4 *11260:3 0.1
6 *11260:5 *11260:4 0.25
7 *11260:2 *43:A2 0.3783334
8 *11260:3 *11260:2 0.5

*END

*D_NET *11261 0.3023943 //LENGTH 3.906 DR

*CONN
*I *67:Y O *L 0.000 *C 65.940 68.372
*I *44:A2 I *L 0.558 *C 67.916 69.617
*N *11261:2 *C 67.916 69.574
*N *11261:3 *C 67.916 69.116
*N *11261:4 *C 67.916 69.072
*N *11261:5 *C 66.092 69.072
*N *11261:6 *C 66.092 69.029
*N *11261:7 *C 66.152 68.372
*N *11261:8 *C 66.107 68.372

*CAP
0 *67:Y 0.01877458
1 *44:A2 0.001
2 *11261:2 0.03736104
3 *11261:3 0.03404928
4 *11261:4 0.06922423
5 *11261:5 0.06812835
6 *11261:6 0.02520074
7 *11261:7 0.0361077
8 *11261:8 0.01254839

*RES
0 *67:Y *11261:8 0.3340001
1 *11261:8 *11261:7 0.5
2 *11261:7 *11261:6 1.172322
3 *11261:6 *11261:5 0.25
4 *11261:5 *11261:4 3.257143
5 *11261:3 *11261:2 0.8178571
6 *11261:4 *11261:3 0.25
7 *11261:2 *44:A2 0.5

*END

*D_NET *11262 0.9592715 //LENGTH 9.639 DR

*CONN
*I *46:Y O *L 0.000 *C 72.034 64.893
*I *44:A3 I *L 0.522 *C 68.220 69.548
*I *66:A I *L 0.588 *C 72.476 69.436
*N *11262:3 *C 72.476 69.376
*N *11262:4 *C 72.476 69.376
*N *11262:5 *C 68.220 69.503
*N *11262:6 *C 68.220 69.503
*N *11262:7 *C 68.220 69.376
*N *11262:8 *C 68.220 69.376
*N *11262:9 *C 72.172 69.376
*N *11262:10 *C 72.172 69.333
*N *11262:11 *C 72.172 64.980
*N *11262:12 *C 72.172 64.936

*CAP
0 *46:Y 0.01305292
1 *44:A3 0.01406485
2 *66:A 0.001
3 *11262:3 0.001
4 *11262:4 0.01395778
5 *11262:5 0.007838656
6 *11262:6 0.01017004
7 *11262:7 0.009267436
8 *11262:8 0.1396088
9 *11262:9 0.149612
10 *11262:10 0.2887328
11 *11262:11 0.2896233
12 *11262:12 0.02134293

*RES
0 *46:Y *11262:12 0.1473404
1 *11262:10 *11262:9 0.25
2 *11262:9 *11262:8 7.057143
3 *11262:9 *11262:4 0.5428572
4 *11262:12 *11262:11 0.5
5 *11262:11 *11262:10 7.773215
6 *11262:7 *11262:6 0.1916667
7 *11262:8 *11262:7 0.25
8 *11262:5 *44:A3 0.08181819
9 *11262:6 *11262:5 0.5
10 *11262:3 *66:A 0.5
11 *11262:4 *11262:3 0.25

*END

*D_NET *11263 2.701135 //LENGTH 25.227 DR

*CONN
*I *61:Y O *L 0.000 *C 65.484 63.812
*I *52:A1 I *L 0.671 *C 63.812 57.772
*I *58:A1 I *L 0.552 *C 69.436 59.748
*I *59:A1 I *L 0.617 *C 72.324 57.884
*I *45:A1 I *L 0.552 *C 72.324 66.436
*N *11263:5 *C 72.324 66.336
*N *11263:6 *C 72.324 66.305
*N *11263:7 *C 72.324 57.898
*N *11263:8 *C 72.324 59.648
*N *11263:9 *C 72.324 59.648
*N *11263:10 *C 69.436 59.648
*N *11263:11 *C 69.436 59.648
*N *11263:12 *C 69.436 59.768
*N *11263:13 *C 69.436 59.768
*N *11263:14 *C 63.812 57.757
*N *11263:15 *C 63.812 57.771
*N *11263:16 *C 63.812 58.188
*N *11263:17 *C 63.660 58.188
*N *11263:18 *C 63.660 59.725
*N *11263:19 *C 63.660 59.768
*N *11263:20 *C 65.636 59.648
*N *11263:21 *C 65.636 59.692
*N *11263:22 *C 65.696 63.812
*N *11263:23 *C 65.651 63.812

*CAP
0 *61:Y 0.02414247
1 *52:A1 0.007367876
2 *58:A1 0.01747095
3 *59:A1 0.001
4 *45:A1 0.01741423
5 *11263:5 0.01118803
6 *11263:6 0.512511
7 *11263:7 0.119189
8 *11263:8 0.6403613
9 *11263:9 0.1085946
10 *11263:10 0.01124475
11 *11263:11 0.0213132
12 *11263:12 0.02011757
13 *11263:13 0.2456692
14 *11263:14 0.005292478
15 *11263:15 0.03061611
16 *11263:16 0.04181254
17 *11263:17 0.1003991
18 *11263:18 0.08416141
19 *11263:19 0.08751983
20 *11263:20 0.2297037
21 *11263:21 0.1676678
22 *11263:22 0.1784612
23 *11263:23 0.01791628

*RES
0 *61:Y *11263:23 0.3340001
1 *11263:5 *45:A1 0.1916667
2 *11263:6 *11263:5 0.5
3 *11263:8 *11263:7 3.125893
4 *11263:8 *11263:6 11.8875
5 *11263:9 *11263:8 0.25
6 *11263:12 *11263:11 0.08181819
7 *11263:13 *11263:12 0.25
8 *11263:13 *11263:9 5.157143
9 *11263:10 *58:A1 0.1916667
10 *11263:11 *11263:10 0.5
11 *11263:21 *11263:20 0.25
12 *11263:20 *11263:19 3.528571
13 *11263:20 *11263:13 6.785715
14 *11263:23 *11263:22 0.5
15 *11263:22 *11263:21 7.358037
16 *11263:7 *59:A1 1
17 *11263:18 *11263:17 2.74375
18 *11263:19 *11263:18 0.25
19 *11263:14 *52:A1 0.02727273
20 *11263:15 *11263:14 1
21 *11263:17 *11263:16 0.2714286
22 *11263:16 *11263:15 0.7455358

*END

*D_NET *11264 0.9020602 //LENGTH 8.131 DR

*CONN
*I *60:Y O *L 0.000 *C 72.628 61.111
*I *59:A2 I *L 0.558 *C 72.518 57.732
*I *46:A3 I *L 0.468 *C 71.458 64.436
*N *11264:3 *C 71.458 64.436
*N *11264:4 *C 71.458 64.208
*N *11264:5 *C 71.458 64.208
*N *11264:6 *C 72.628 64.208
*N *11264:7 *C 72.628 64.165
*N *11264:8 *C 72.518 57.732
*N *11264:9 *C 72.628 61.111

*CAP
0 *60:Y 0.001
1 *59:A2 0.001
2 *46:A3 0.001
3 *11264:3 0.01001929
4 *11264:4 0.009383089
5 *11264:5 0.05121067
6 *11264:6 0.05030321
7 *11264:7 0.1779709
8 *11264:8 0.2113575
9 *11264:9 0.3888155

*RES
0 *60:Y *11264:9 0.5
1 *11264:9 *11264:8 6.033929
2 *11264:9 *11264:7 5.452679
3 *11264:8 *59:A2 0.5
4 *11264:7 *11264:6 0.25
5 *11264:6 *11264:5 2.089286
6 *11264:4 *11264:3 0.1916667
7 *11264:5 *11264:4 0.25
8 *11264:3 *46:A3 0.5

*END

*D_NET *11265 1.162351 //LENGTH 13.037 DR

*CONN
*I *50:Y O *L 0.000 *C 66.518 54.413
*I *47:A1 I *L 0.552 *C 60.785 60.964
*N *11265:2 *C 60.832 60.924
*N *11265:3 *C 60.832 60.924
*N *11265:4 *C 60.772 54.828
*N *11265:5 *C 60.772 54.784
*N *11265:6 *C 65.940 54.784
*N *11265:7 *C 65.940 54.741
*N *11265:8 *C 65.880 54.413
*N *11265:9 *C 65.925 54.413

*CAP
0 *50:Y 0.0602208
1 *47:A1 0.01328501
2 *11265:2 0.007058816
3 *11265:3 0.2730211
4 *11265:4 0.2654143
5 *11265:5 0.2240318
6 *11265:6 0.2247322
7 *11265:7 0.01426981
8 *11265:8 0.02632273
9 *11265:9 0.05399461

*RES
0 *50:Y *11265:9 1.186
1 *11265:9 *11265:8 0.5
2 *11265:8 *11265:7 0.6080357
3 *11265:7 *11265:6 0.25
4 *11265:6 *11265:5 9.228572
5 *11265:4 *11265:3 10.88661
6 *11265:5 *11265:4 0.25
7 *11265:2 *47:A1 0.08181818
8 *11265:3 *11265:2 0.5

*END

*D_NET *11266 0.3248405 //LENGTH 3.408 DR

*CONN
*I *48:Y O *L 0.000 *C 62.748 60.104
*I *47:A2 I *L 0.467 *C 60.864 61.228
*N *11266:2 *C 60.864 61.228
*N *11266:3 *C 60.924 61.288
*N *11266:4 *C 60.924 61.288
*N *11266:5 *C 62.748 61.168
*N *11266:6 *C 62.748 61.125
*N *11266:7 *C 62.748 60.135

*CAP
0 *48:Y 0.001
1 *47:A2 0.001
2 *11266:2 0.009637265
3 *11266:3 0.01258009
4 *11266:4 0.06336851
5 *11266:5 0.06863328
6 *11266:6 0.08428635
7 *11266:7 0.08433497

*RES
0 *48:Y *11266:7 0.5
1 *11266:7 *11266:6 1.766965
2 *11266:6 *11266:5 0.25
3 *11266:5 *11266:4 3.257143
4 *11266:3 *11266:2 0.2066667
5 *11266:4 *11266:3 0.25
6 *11266:2 *47:A2 0.5

*END

*D_NET *11267 0.4947893 //LENGTH 4.566 DR

*CONN
*I *49:Y O *L 0.000 *C 66.092 60.468
*I *48:A4 I *L 0.574 *C 63.390 59.444
*N *11267:2 *C 63.508 59.464
*N *11267:3 *C 63.508 59.464
*N *11267:4 *C 63.508 59.344
*N *11267:5 *C 63.508 59.344
*N *11267:6 *C 65.940 59.344
*N *11267:7 *C 65.940 59.388
*N *11267:8 *C 65.880 60.468
*N *11267:9 *C 65.925 60.468

*CAP
0 *49:Y 0.02403757
1 *48:A4 0.01581174
2 *11267:2 0.0269936
3 *11267:3 0.01304702
4 *11267:4 0.01253682
5 *11267:5 0.1318884
6 *11267:6 0.1324086
7 *11267:7 0.05237277
8 *11267:8 0.06788138
9 *11267:9 0.01781138

*RES
0 *49:Y *11267:9 0.3340001
1 *11267:9 *11267:8 0.5
2 *11267:8 *11267:7 1.929464
3 *11267:7 *11267:6 0.25
4 *11267:6 *11267:5 4.342858
5 *11267:4 *11267:3 0.1916667
6 *11267:5 *11267:4 0.25
7 *11267:2 *48:A4 0.1388235
8 *11267:3 *11267:2 0.5

*END

*D_NET *11268 0.7533209 //LENGTH 7.262 DR

*CONN
*I *54:Y O *L 0.000 *C 65.028 53.324
*I *50:A1 I *L 0.617 *C 66.700 54.580
*I *53:A2 I *L 0.492 *C 66.760 57.884
*N *11268:3 *C 66.760 57.884
*N *11268:4 *C 66.700 54.480
*N *11268:5 *C 66.700 54.480
*N *11268:6 *C 66.700 53.308
*N *11268:7 *C 66.700 53.264
*N *11268:8 *C 65.028 53.264
*N *11268:9 *C 65.028 53.264
*N *11268:10 *C 65.088 53.324
*N *11268:11 *C 65.088 53.324

*CAP
0 *54:Y 0.01451497
1 *50:A1 0.0148945
2 *53:A2 0.001
3 *11268:3 0.2058198
4 *11268:4 0.008668306
5 *11268:5 0.269314
6 *11268:6 0.05817319
7 *11268:7 0.07243647
8 *11268:8 0.07290416
9 *11268:9 0.01032764
10 *11268:10 0.01697911
11 *11268:11 0.008288777

*RES
0 *54:Y *11268:11 0.1916667
1 *11268:4 *50:A1 0.325
2 *11268:5 *11268:4 0.5
3 *11268:5 *11268:3 6.078571
4 *11268:6 *11268:5 2.09375
5 *11268:7 *11268:6 0.25
6 *11268:9 *11268:8 0.25
7 *11268:8 *11268:7 2.985715
8 *11268:11 *11268:10 0.5
9 *11268:10 *11268:9 0.1
10 *11268:3 *53:A2 0.5

*END

*D_NET *11269 0.5708987 //LENGTH 6.155 DR

*CONN
*I *53:Y O *L 0.000 *C 67.612 57.276
*I *51:A1 I *L 0.552 *C 62.609 57.620
*N *11269:2 *C 62.656 57.580
*N *11269:3 *C 62.656 57.580
*N *11269:4 *C 62.596 57.380
*N *11269:5 *C 62.596 57.336
*N *11269:6 *C 67.612 57.216
*N *11269:7 *C 67.612 57.216
*N *11269:8 *C 67.672 57.276
*N *11269:9 *C 67.672 57.276

*CAP
0 *53:Y 0.01397616
1 *51:A1 0.01808691
2 *11269:2 0.01186071
3 *11269:3 0.02159616
4 *11269:4 0.01113252
5 *11269:5 0.2363173
6 *11269:6 0.2298448
7 *11269:7 0.007479412
8 *11269:8 0.01285482
9 *11269:9 0.007749968

*RES
0 *53:Y *11269:9 0.1916667
1 *11269:9 *11269:8 0.5
2 *11269:8 *11269:7 0.1
3 *11269:7 *11269:6 0.25
4 *11269:6 *11269:5 8.957143
5 *11269:4 *11269:3 0.39375
6 *11269:5 *11269:4 0.25
7 *11269:2 *51:A1 0.08181819
8 *11269:3 *11269:2 0.5

*END

*D_NET *11270 0.1877013 //LENGTH 1.761 DR

*CONN
*I *52:Y O *L 0.000 *C 64.024 57.884
*I *51:A2 I *L 0.467 *C 62.688 57.884
*N *11270:2 *C 62.688 57.884
*N *11270:3 *C 62.748 57.944
*N *11270:4 *C 62.748 57.944
*N *11270:5 *C 63.964 57.824
*N *11270:6 *C 63.964 57.824
*N *11270:7 *C 64.024 57.884

*CAP
0 *52:Y 0.001
1 *51:A2 0.001
2 *11270:2 0.01565281
3 *11270:3 0.01502663
4 *11270:4 0.05663747
5 *11270:5 0.06354447
6 *11270:6 0.01244316
7 *11270:7 0.02239671

*RES
0 *52:Y *11270:7 0.5
1 *11270:7 *11270:6 0.1
2 *11270:6 *11270:5 0.25
3 *11270:5 *11270:4 2.235715
4 *11270:3 *11270:2 0.1
5 *11270:4 *11270:3 0.25
6 *11270:2 *51:A2 0.5

*END

*D_NET *11271 1.051195 //LENGTH 13.187 DR

*CONN
*I *58:Y O *L 0.000 *C 69.588 59.521
*I *68:A I *L 0.588 *C 73.540 54.540
*I *53:A3 I *L 0.539 *C 67.216 58.492
*N *11271:3 *C 67.216 58.492
*N *11271:4 *C 67.156 58.172
*N *11271:5 *C 67.156 58.128
*N *11271:6 *C 69.588 58.128
*N *11271:7 *C 69.588 58.172
*N *11271:8 *C 73.540 54.584
*N *11271:9 *C 73.540 58.693
*N *11271:10 *C 73.540 58.736
*N *11271:11 *C 69.588 58.736
*N *11271:12 *C 69.588 58.736
*N *11271:13 *C 69.588 59.478

*CAP
0 *58:Y 0.001
1 *68:A 0.001
2 *53:A3 0.001
3 *11271:3 0.03099898
4 *11271:4 0.01692493
5 *11271:5 0.1052037
6 *11271:6 0.1050212
7 *11271:7 0.0245123
8 *11271:8 0.1722072
9 *11271:9 0.1697602
10 *11271:10 0.1560428
11 *11271:11 0.1581999
12 *11271:12 0.07409064
13 *11271:13 0.03523323

*RES
0 *58:Y *11271:13 0.5
1 *11271:12 *11271:11 0.25
2 *11271:12 *11271:7 1.008036
3 *11271:11 *11271:10 7.057143
4 *11271:9 *11271:8 7.337501
5 *11271:10 *11271:9 0.25
6 *11271:8 *68:A 0.5
7 *11271:7 *11271:6 0.25
8 *11271:6 *11271:5 4.342858
9 *11271:4 *11271:3 0.5723214
10 *11271:5 *11271:4 0.25
11 *11271:3 *53:A3 0.5
12 *11271:13 *11271:12 1.324107

*END

*D_NET *11272 0.5051091 //LENGTH 5.420 DR

*CONN
*I *59:Y O *L 0.000 *C 72.194 57.677
*I *55:A1 I *L 0.552 *C 71.108 54.276
*N *11272:2 *C 71.108 54.296
*N *11272:3 *C 71.108 54.327
*N *11272:4 *C 71.108 57.477
*N *11272:5 *C 71.108 57.520
*N *11272:6 *C 72.172 57.520
*N *11272:7 *C 72.172 57.563
*N *11272:8 *C 72.232 57.707
*N *11272:9 *C 72.232 57.707

*CAP
0 *59:Y 0.01631399
1 *55:A1 0.0155134
2 *11272:2 0.009287204
3 *11272:3 0.1425461
4 *11272:4 0.1416557
5 *11272:5 0.05672976
6 *11272:6 0.05483634
7 *11272:7 0.01872451
8 *11272:8 0.03941439
9 *11272:9 0.0100878

*RES
0 *59:Y *11272:9 0.1916667
1 *11272:9 *11272:8 0.5
2 *11272:8 *11272:7 0.2408334
3 *11272:7 *11272:6 0.25
4 *11272:6 *11272:5 1.9
5 *11272:4 *11272:3 5.844643
6 *11272:5 *11272:4 0.25
7 *11272:2 *55:A1 0.365
8 *11272:3 *11272:2 0.5

*END

*D_NET *11273 0.3957953 //LENGTH 4.366 DR

*CONN
*I *56:Y O *L 0.000 *C 69.010 52.893
*I *55:A2 I *L 0.467 *C 70.946 54.580
*N *11273:2 *C 70.896 54.540
*N *11273:3 *C 70.896 54.540
*N *11273:4 *C 70.956 53.004
*N *11273:5 *C 70.956 52.960
*N *11273:6 *C 69.284 52.960
*N *11273:7 *C 69.284 52.960
*N *11273:8 *C 69.344 52.893
*N *11273:9 *C 69.299 52.893

*CAP
0 *56:Y 0.02668589
1 *55:A2 0.01467703
2 *11273:2 0.008450836
3 *11273:3 0.09280499
4 *11273:4 0.0809608
5 *11273:5 0.06512468
6 *11273:6 0.06394227
7 *11273:7 0.008521132
8 *11273:8 0.01416792
9 *11273:9 0.0204597

*RES
0 *56:Y *11273:9 0.578
1 *11273:9 *11273:8 0.5
2 *11273:8 *11273:7 0.1116667
3 *11273:7 *11273:6 0.25
4 *11273:6 *11273:5 2.985714
5 *11273:4 *11273:3 2.74375
6 *11273:5 *11273:4 0.25
7 *11273:2 *55:A2 0.08181819
8 *11273:3 *11273:2 0.5

*END

*D_NET *11274 0.6084184 //LENGTH 6.130 DR

*CONN
*I *57:Y O *L 0.000 *C 64.724 54.540
*I *56:A3 I *L 0.522 *C 68.372 52.908
*N *11274:2 *C 68.372 52.953
*N *11274:3 *C 68.372 52.997
*N *11274:4 *C 68.372 53.829
*N *11274:5 *C 68.372 53.872
*N *11274:6 *C 64.724 53.872
*N *11274:7 *C 64.724 53.916
*N *11274:8 *C 64.784 54.515
*N *11274:9 *C 64.784 54.515

*CAP
0 *57:Y 0.01610399
1 *56:A3 0.01395429
2 *11274:2 0.007728097
3 *11274:3 0.06247466
4 *11274:4 0.0615842
5 *11274:5 0.1669841
6 *11274:6 0.1674554
7 *11274:7 0.04264509
8 *11274:8 0.05961078
9 *11274:9 0.009877793

*RES
0 *57:Y *11274:9 0.1916667
1 *11274:9 *11274:8 0.5
2 *11274:8 *11274:7 1.070536
3 *11274:7 *11274:6 0.25
4 *11274:6 *11274:5 6.514286
5 *11274:4 *11274:3 1.485714
6 *11274:5 *11274:4 0.25
7 *11274:2 *56:A3 0.08181819
8 *11274:3 *11274:2 0.5

*END

*D_NET *11275 0.3080235 //LENGTH 3.715 DR

*CONN
*I *66:Y O *L 0.000 *C 72.668 69.366
*I *45:A2 I *L 0.467 *C 72.501 66.117
*N *11275:2 *C 72.675 66.092
*N *11275:3 *C 72.720 66.092
*N *11275:4 *C 72.780 69.260

*CAP
0 *66:Y 0.001
1 *45:A2 0.0196044
2 *11275:2 0.0133782
3 *11275:3 0.1445775
4 *11275:4 0.1294633

*RES
0 *66:Y *11275:4 0.5
1 *11275:4 *11275:3 5.65625
2 *11275:2 *45:A2 0.348
3 *11275:3 *11275:2 0.5

*END

*D_NET *11276 1.420956 //LENGTH 14.657 DR

*CONN
*I *70:Y O *L 0.000 *C 68.950 54.667
*I *50:A2 I *L 0.558 *C 66.852 54.353
*I *57:A1 I *L 0.548 *C 64.116 54.579
*I *52:A3 I *L 0.590 *C 63.508 57.732
*I *53:A1 I *L 0.540 *C 67.004 57.767
*N *11276:5 *C 67.003 57.694
*N *11276:6 *C 67.003 57.580
*N *11276:7 *C 63.508 57.720
*N *11276:8 *C 63.508 57.563
*N *11276:9 *C 63.508 57.520
*N *11276:10 *C 66.852 57.520
*N *11276:11 *C 66.853 57.580
*N *11276:12 *C 64.116 54.600
*N *11276:13 *C 64.116 54.557
*N *11276:14 *C 64.116 54.220
*N *11276:15 *C 64.116 54.176
*N *11276:16 *C 66.852 54.176
*N *11276:17 *C 66.852 54.176
*N *11276:18 *C 66.852 54.397
*N *11276:19 *C 66.852 55.088
*N *11276:20 *C 66.852 55.088
*N *11276:21 *C 68.676 55.088
*N *11276:22 *C 68.676 55.045
*N *11276:23 *C 68.616 54.667
*N *11276:24 *C 68.661 54.667

*CAP
0 *70:Y 0.02489239
1 *50:A2 0.001
2 *57:A1 0.01463151
3 *52:A3 0.001
4 *53:A1 0.001
5 *11276:5 0.01411249
6 *11276:6 0.02649035
7 *11276:7 0.02059918
8 *11276:8 0.01728742
9 *11276:9 0.1568066
10 *11276:10 0.1557238
11 *11276:11 0.1552324
12 *11276:12 0.008405314
13 *11276:13 0.02753744
14 *11276:14 0.02664698
15 *11276:15 0.1425568
16 *11276:16 0.1444974
17 *11276:17 0.01450566
18 *11276:18 0.06112885
19 *11276:19 0.2035414
20 *11276:20 0.07009868
21 *11276:21 0.0687042
22 *11276:22 0.01708928
23 *11276:23 0.02880125
24 *11276:24 0.01866619

*RES
0 *70:Y *11276:24 0.5780001
1 *11276:18 *50:A2 0.5
2 *11276:18 *11276:17 0.1916667
3 *11276:11 *11276:10 0.25
4 *11276:11 *11276:6 0.2669643
5 *11276:10 *11276:9 5.971429
6 *11276:8 *11276:7 0.2616667
7 *11276:9 *11276:8 0.25
8 *11276:7 *52:A3 1
9 *11276:17 *11276:16 0.25
10 *11276:16 *11276:15 4.885715
11 *11276:14 *11276:13 0.6017857
12 *11276:15 *11276:14 0.25
13 *11276:12 *57:A1 0.08181819
14 *11276:13 *11276:12 0.5
15 *11276:5 *53:A1 0.5
16 *11276:19 *11276:18 1.234822
17 *11276:19 *11276:11 4.485715
18 *11276:20 *11276:19 0.25
19 *11276:22 *11276:21 0.25
20 *11276:21 *11276:20 3.257143
21 *11276:24 *11276:23 0.5
22 *11276:23 *11276:22 0.6741073
23 *11276:6 *11276:5 0.1965517

*END

*D_NET *11277 0.2609777 //LENGTH 2.826 DR

*CONN
*I *69:Y O *L 0.000 *C 65.302 51.392
*I *54:A2 I *L 0.492 *C 64.223 52.704
*N *11277:2 *C 64.268 52.656
*N *11277:3 *C 64.268 52.613
*N *11277:4 *C 64.208 51.389
*N *11277:5 *C 64.253 51.389

*CAP
0 *69:Y 0.06070708
1 *54:A2 0.01491417
2 *11277:2 0.008687974
3 *11277:3 0.05526915
4 *11277:4 0.0669184
5 *11277:5 0.05448089

*RES
0 *69:Y *11277:5 2.098
1 *11277:5 *11277:4 0.5
2 *11277:4 *11277:3 2.184822
3 *11277:2 *54:A2 0.08181819
4 *11277:3 *11277:2 0.5

*END

*D_NET *11278 0.514167 //LENGTH 6.257 DR

*CONN
*I *62:Q O *L 0.000 *C 63.082 62.950
*I *49:A2 I *L 0.542 *C 66.713 61.268
*N *11278:2 *C 66.760 61.228
*N *11278:3 *C 66.760 61.228
*N *11278:4 *C 66.700 61.733
*N *11278:5 *C 66.700 61.776
*N *11278:6 *C 63.052 61.776
*N *11278:7 *C 63.052 61.820
*N *11278:8 *C 63.052 62.949
*N *11278:9 *C 63.052 62.992

*CAP
0 *62:Q 0.01714402
1 *49:A2 0.0197248
2 *11278:2 0.0134986
3 *11278:3 0.02730438
4 *11278:4 0.02013488
5 *11278:5 0.1438172
6 *11278:6 0.1450996
7 *11278:7 0.05781762
8 *11278:8 0.05870808
9 *11278:9 0.01091783

*RES
0 *62:Q *11278:9 0.08181819
1 *11278:9 *11278:8 0.5
2 *11278:8 *11278:7 2.016072
3 *11278:7 *11278:6 0.25
4 *11278:6 *11278:5 6.514286
5 *11278:4 *11278:3 0.9008929
6 *11278:5 *11278:4 0.25
7 *11278:2 *49:A2 0.08181819
8 *11278:3 *11278:2 0.5

*END

*D_NET *11279 1.490535 //LENGTH 18.337 DR

*CONN
*I *63:Q O *L 0.000 *C 61.866 57.840
*I *58:A2 I *L 0.467 *C 69.274 59.444
*I *60:A1 I *L 0.552 *C 72.446 60.949
*I *46:A2 I *L 0.575 *C 71.168 63.812
*N *11279:4 *C 71.168 63.812
*N *11279:5 *C 71.853 60.924
*N *11279:6 *C 71.777 60.924
*N *11279:7 *C 71.108 60.924
*N *11279:8 *C 71.108 60.864
*N *11279:9 *C 69.284 60.864
*N *11279:10 *C 69.284 60.821
*N *11279:11 *C 69.224 59.404
*N *11279:12 *C 69.224 59.404
*N *11279:13 *C 69.284 59.405
*N *11279:14 *C 69.284 59.301
*N *11279:15 *C 69.284 59.100
*N *11279:16 *C 61.836 59.040
*N *11279:17 *C 61.836 58.997
*N *11279:18 *C 61.836 57.671
*N *11279:19 *C 61.836 57.677

*CAP
0 *63:Q 0.01645197
1 *58:A2 0.01360711
2 *60:A1 0.04135544
3 *46:A2 0.001
4 *11279:4 0.1207643
5 *11279:5 0.03512925
6 *11279:6 0.02437023
7 *11279:7 0.1440102
8 *11279:8 0.08747157
9 *11279:9 0.08713071
10 *11279:10 0.06873073
11 *11279:11 0.007380917
12 *11279:12 0.01134247
13 *11279:13 0.07819492
14 *11279:14 0.006876958
15 *11279:15 0.3115135
16 *11279:16 0.3003103
17 *11279:17 0.06188918
18 *11279:18 0.06277964
19 *11279:19 0.01022578

*RES
0 *63:Q *11279:19 0.2583334
1 *11279:5 *60:A1 1.186
2 *11279:6 *11279:5 0.5
3 *11279:4 *46:A2 0.5
4 *11279:10 *11279:9 0.25
5 *11279:9 *11279:8 3.257143
6 *11279:7 *11279:6 1.194643
7 *11279:7 *11279:4 5.378572
8 *11279:8 *11279:7 0.25
9 *11279:11 *58:A2 0.08181819
10 *11279:12 *11279:11 0.5
11 *11279:13 *11279:12 0.1
12 *11279:13 *11279:10 2.527679
13 *11279:14 *11279:13 0.25
14 *11279:17 *11279:16 0.25
15 *11279:16 *11279:15 13.3
16 *11279:19 *11279:18 0.5
17 *11279:18 *11279:17 2.49375
18 *11279:15 *11279:14 0.3580357

*END

*D_NET *11280 2.071137 //LENGTH 22.800 DR

*CONN
*I *64:Q O *L 0.000 *C 62.626 54.496
*I *52:A2 I *L 0.583 *C 63.660 57.924
*I *54:A3 I *L 0.539 *C 64.632 52.108
*I *67:A2 I *L 1.032 *C 64.360 67.916
*N *11280:4 *C 64.391 67.916
*N *11280:5 *C 64.572 67.916
*N *11280:6 *C 64.632 52.108
*N *11280:7 *C 64.572 56.912
*N *11280:8 *C 64.572 56.912
*N *11280:9 *C 63.660 57.944
*N *11280:10 *C 63.660 57.901
*N *11280:11 *C 63.660 56.956
*N *11280:12 *C 63.660 56.912
*N *11280:13 *C 62.596 56.912
*N *11280:14 *C 62.596 56.869
*N *11280:15 *C 62.596 54.327
*N *11280:16 *C 62.596 54.333

*CAP
0 *64:Q 0.01979407
1 *52:A2 0.01359793
2 *54:A3 0.001
3 *67:A2 0.001
4 *11280:4 0.007689074
5 *11280:5 0.5069431
6 *11280:6 0.2347644
7 *11280:7 0.7213343
8 *11280:8 0.04383634
9 *11280:9 0.007371738
10 *11280:10 0.05722342
11 *11280:11 0.05633296
12 *11280:12 0.09079122
13 *11280:13 0.05085301
14 *11280:14 0.1220736
15 *11280:15 0.1229641
16 *11280:16 0.01356787

*RES
0 *64:Q *11280:16 0.1308333
1 *11280:11 *11280:10 1.6875
2 *11280:12 *11280:11 0.25
3 *11280:12 *11280:8 1.628572
4 *11280:9 *52:A2 0.08181819
5 *11280:10 *11280:9 0.5
6 *11280:7 *11280:6 8.578571
7 *11280:7 *11280:5 19.65
8 *11280:8 *11280:7 0.25
9 *11280:6 *54:A3 0.5
10 *11280:4 *67:A2 0.5
11 *11280:14 *11280:13 0.25
12 *11280:13 *11280:12 1.9
13 *11280:16 *11280:15 0.5
14 *11280:15 *11280:14 4.538393
15 *11280:5 *11280:4 0.3232143

*END

*D_NET *11281 0.3745115 //LENGTH 4.327 DR

*CONN
*I *230:Y O *L 0.000 *C 47.244 30.373
*I *157:A2 I *L 0.575 *C 44.568 30.068
*N *11281:2 *C 44.568 30.068
*N *11281:3 *C 44.508 30.160
*N *11281:4 *C 44.508 30.129
*N *11281:5 *C 44.508 29.916
*N *11281:6 *C 47.244 29.856
*N *11281:7 *C 47.244 29.900
*N *11281:8 *C 47.304 30.372
*N *11281:9 *C 47.304 30.372

*CAP
0 *230:Y 0.01836739
1 *157:A2 0.001
2 *11281:2 0.01131651
3 *11281:3 0.008602899
4 *11281:4 0.005919021
5 *11281:5 0.1271829
6 *11281:6 0.1185632
7 *11281:7 0.02867762
8 *11281:8 0.04274077
9 *11281:9 0.01214119

*RES
0 *230:Y *11281:9 0.1916667
1 *11281:9 *11281:8 0.5
2 *11281:8 *11281:7 0.8937501
3 *11281:7 *11281:6 0.25
4 *11281:6 *11281:5 4.885715
5 *11281:3 *11281:2 0.1
6 *11281:4 *11281:3 0.25
7 *11281:2 *157:A2 0.5
8 *11281:5 *11281:4 0.3803572

*END

*D_NET *11282 0.3866805 //LENGTH 4.299 DR

*CONN
*I *72:Y O *L 0.000 *C 62.457 25.636
*I *71:RSTB I *L 0.758 *C 65.206 25.043
*N *11282:2 *C 65.266 25.052
*N *11282:3 *C 65.240 25.052
*N *11282:4 *C 65.180 24.992
*N *11282:5 *C 65.180 24.992
*N *11282:6 *C 62.444 24.992
*N *11282:7 *C 62.444 25.036
*N *11282:8 *C 62.504 25.660
*N *11282:9 *C 62.504 25.660

*CAP
0 *72:Y 0.01708958
1 *71:RSTB 0.02178321
2 *11282:2 0.01555701
3 *11282:3 0.01954148
4 *11282:4 0.01098615
5 *11282:5 0.1151944
6 *11282:6 0.114888
7 *11282:7 0.02614299
8 *11282:8 0.0346343
9 *11282:9 0.01086338

*RES
0 *72:Y *11282:9 0.08181819
1 *11282:9 *11282:8 0.5
2 *11282:8 *11282:7 1.115179
3 *11282:7 *11282:6 0.25
4 *11282:6 *11282:5 4.964286
5 *11282:4 *11282:3 0.1
6 *11282:5 *11282:4 0.25
7 *11282:2 *71:RSTB 0.2341667
8 *11282:3 *11282:2 0.5

*END

*D_NET *11283 0.1449948 //LENGTH 1.750 DR

*CONN
*I *73:Y O *L 0.000 *C 59.434 24.758
*I *72:A2 I *L 1.036 *C 59.708 26.024
*N *11283:2 *C 59.708 25.993
*N *11283:3 *C 59.648 24.748
*N *11283:4 *C 59.603 24.748

*CAP
0 *73:Y 0.01784997
1 *72:A2 0.001
2 *11283:2 0.0522126
3 *11283:3 0.06230847
4 *11283:4 0.01162378

*RES
0 *73:Y *11283:4 0.338
1 *11283:4 *11283:3 0.5
2 *11283:3 *11283:2 2.223215
3 *11283:2 *72:A2 0.5

*END

*D_NET *11284 0.892938 //LENGTH 11.658 DR

*CONN
*I *74:Y O *L 0.000 *C 68.220 30.372
*I *72:A3 I *L 1.279 *C 61.836 25.783
*N *11284:2 *C 61.836 25.827
*N *11284:3 *C 61.836 26.165
*N *11284:4 *C 61.836 26.208
*N *11284:5 *C 68.068 26.208
*N *11284:6 *C 68.068 26.252
*N *11284:7 *C 68.008 30.372
*N *11284:8 *C 68.053 30.372

*CAP
0 *74:Y 0.02417093
1 *72:A3 0.001
2 *11284:2 0.02227795
3 *11284:3 0.02225224
4 *11284:4 0.2364781
5 *11284:5 0.2350331
6 *11284:6 0.1609719
7 *11284:7 0.1728091
8 *11284:8 0.01794473

*RES
0 *74:Y *11284:8 0.3340001
1 *11284:8 *11284:7 0.5
2 *11284:7 *11284:6 7.408036
3 *11284:6 *11284:5 0.25
4 *11284:5 *11284:4 11.12857
5 *11284:3 *11284:2 0.6035714
6 *11284:4 *11284:3 0.25
7 *11284:2 *72:A3 0.5

*END

*D_NET *11285 0.6811629 //LENGTH 6.368 DR

*CONN
*I *76:Y O *L 0.000 *C 70.348 35.540
*I *74:A3 I *L 1.279 *C 68.676 31.309
*N *11285:2 *C 68.676 31.369
*N *11285:3 *C 68.676 31.413
*N *11285:4 *C 68.616 35.540
*N *11285:5 *C 68.661 35.540

*CAP
0 *76:Y 0.09615756
1 *74:A3 0.01559483
2 *11285:2 0.009368632
3 *11285:3 0.2300399
4 *11285:4 0.2400706
5 *11285:5 0.08993136

*RES
0 *76:Y *11285:5 3.374
1 *11285:5 *11285:4 0.5
2 *11285:4 *11285:3 7.370536
3 *11285:2 *74:A3 0.08181818
4 *11285:3 *11285:2 0.5

*END

*D_NET *11286 0.3722295 //LENGTH 4.155 DR

*CONN
*I *75:Y O *L 0.000 *C 55.756 24.257
*I *73:A3 I *L 1.279 *C 58.796 24.625
*N *11286:2 *C 58.796 24.582
*N *11286:3 *C 58.796 24.124
*N *11286:4 *C 58.796 24.080
*N *11286:5 *C 55.756 24.080
*N *11286:6 *C 55.756 24.080
*N *11286:7 *C 55.756 24.257

*CAP
0 *75:Y 0.001
1 *73:A3 0.001
2 *11286:2 0.02555771
3 *11286:3 0.025532
4 *11286:4 0.1435224
5 *11286:5 0.1437558
6 *11286:6 0.01635033
7 *11286:7 0.01551129

*RES
0 *75:Y *11286:7 0.5
1 *11286:7 *11286:6 0.325
2 *11286:6 *11286:5 0.25
3 *11286:5 *11286:4 5.428572
4 *11286:3 *11286:2 1.038393
5 *11286:4 *11286:3 0.25
6 *11286:2 *73:A3 0.5

*END

*D_NET *11287 0.3777595 //LENGTH 4.273 DR

*CONN
*I *88:Q O *L 0.000 *C 63.356 29.600
*I *278:A I *L 0.564 *C 63.660 25.964
*N *11287:2 *C 63.660 25.964
*N *11287:3 *C 63.356 25.964
*N *11287:4 *C 63.356 29.509
*N *11287:5 *C 63.356 29.552

*CAP
0 *88:Q 0.01697532
1 *278:A 0.001
2 *11287:2 0.01835548
3 *11287:3 0.176712
4 *11287:4 0.1539676
5 *11287:5 0.01074912

*RES
0 *88:Q *11287:5 0.08181819
1 *11287:2 *278:A 0.5
2 *11287:5 *11287:4 0.5
3 *11287:4 *11287:3 6.329465
4 *11287:3 *11287:2 0.5428572

*END

*D_NET *11288 2.601467 //LENGTH 26.409 DR

*CONN
*I *78:Q O *L 0.000 *C 59.683 49.634
*I *81:A1 I *L 0.548 *C 55.452 44.547
*I *83:A4 I *L 0.575 *C 56.212 41.291
*I *93:A1 I *L 0.513 *C 55.921 31.132
*I *96:A2 I *L 0.512 *C 56.377 34.172
*N *11288:5 *C 59.683 49.616
*N *11288:6 *C 56.424 34.172
*N *11288:7 *C 56.424 34.172
*N *11288:8 *C 56.364 34.780
*N *11288:9 *C 55.968 31.132
*N *11288:10 *C 55.968 31.132
*N *11288:11 *C 55.908 34.797
*N *11288:12 *C 55.908 34.840
*N *11288:13 *C 56.212 34.840
*N *11288:14 *C 56.212 34.884
*N *11288:15 *C 56.212 41.231
*N *11288:16 *C 56.212 41.231
*N *11288:17 *C 55.452 44.568
*N *11288:18 *C 55.452 44.525
*N *11288:19 *C 55.452 44.188
*N *11288:20 *C 55.452 44.144
*N *11288:21 *C 56.212 44.144
*N *11288:22 *C 56.212 44.144
*N *11288:23 *C 56.212 48.965
*N *11288:24 *C 56.212 49.008
*N *11288:25 *C 59.683 49.008
*N *11288:26 *C 59.683 49.052
*N *11288:27 *C 59.683 49.585

*CAP
0 *78:Q 0.01006213
1 *81:A1 0.01749931
2 *83:A4 0.01729416
3 *93:A1 0.01540632
4 *96:A2 0.01341075
5 *11288:5 0.01671726
6 *11288:6 0.00718456
7 *11288:7 0.04486131
8 *11288:8 0.04886932
9 *11288:9 0.009180125
10 *11288:10 0.2034975
11 *11288:11 0.1951998
12 *11288:12 0.01958842
13 *11288:13 0.02123895
14 *11288:14 0.3084509
15 *11288:15 0.01106796
16 *11288:16 0.4774134
17 *11288:17 0.01127312
18 *11288:18 0.03045072
19 *11288:19 0.02956026
20 *11288:20 0.03949451
21 *11288:21 0.04027527
22 *11288:22 0.434012
23 *11288:23 0.2584829
24 *11288:24 0.1304631
25 *11288:25 0.1311633
26 *11288:26 0.0294442
27 *11288:27 0.02990573

*RES
0 *78:Q *11288:27 0.5
1 *78:Q *11288:5 0.07666667
2 *11288:15 *83:A4 0.08181819
3 *11288:16 *11288:15 0.5
4 *11288:16 *11288:14 11.33482
5 *11288:22 *11288:21 0.25
6 *11288:22 *11288:16 5.201787
7 *11288:21 *11288:20 1.357143
8 *11288:19 *11288:18 0.6017858
9 *11288:20 *11288:19 0.25
10 *11288:17 *81:A1 0.08181819
11 *11288:18 *11288:17 0.5
12 *11288:6 *96:A2 0.08181819
13 *11288:7 *11288:6 0.5
14 *11288:14 *11288:13 0.25
15 *11288:14 *11288:8 0.2714286
16 *11288:13 *11288:12 0.5428572
17 *11288:11 *11288:10 6.54375
18 *11288:12 *11288:11 0.25
19 *11288:9 *93:A1 0.1109091
20 *11288:10 *11288:9 0.5
21 *11288:23 *11288:22 8.608037
22 *11288:24 *11288:23 0.25
23 *11288:26 *11288:25 0.25
24 *11288:25 *11288:24 6.198215
25 *11288:27 *11288:26 0.9794643
26 *11288:8 *11288:7 1.085714

*END

*D_NET *11289 2.206604 //LENGTH 22.217 DR

*CONN
*I *79:Q O *L 0.000 *C 64.876 39.632
*I *82:A2 I *L 0.512 *C 63.356 40.848
*I *83:A1 I *L 0.513 *C 55.908 41.152
*I *97:A1 I *L 0.513 *C 55.592 35.996
*I *81:A3 I *L 0.459 *C 55.756 44.547
*N *11289:5 *C 55.756 44.568
*N *11289:6 *C 55.756 44.525
*N *11289:7 *C 55.544 35.996
*N *11289:8 *C 55.544 35.996
*N *11289:9 *C 55.604 41.468
*N *11289:10 *C 55.756 41.482
*N *11289:11 *C 55.756 41.408
*N *11289:12 *C 55.908 41.468
*N *11289:13 *C 55.908 40.982
*N *11289:14 *C 55.908 41.104
*N *11289:15 *C 55.908 41.104
*N *11289:16 *C 55.908 41.164
*N *11289:17 *C 63.356 41.104
*N *11289:18 *C 63.356 41.061
*N *11289:19 *C 63.356 40.800
*N *11289:20 *C 63.356 40.800
*N *11289:21 *C 63.356 39.932
*N *11289:22 *C 63.356 39.888
*N *11289:23 *C 64.876 40.008
*N *11289:24 *C 64.876 39.965
*N *11289:25 *C 64.876 39.628
*N *11289:26 *C 64.876 39.584

*CAP
0 *79:Q 0.01669735
1 *82:A2 0.01516778
2 *83:A1 0.01486048
3 *97:A1 0.01376886
4 *81:A3 0.01537776
5 *11289:5 0.009151569
6 *11289:6 0.1695356
7 *11289:7 0.007542667
8 *11289:8 0.3253797
9 *11289:9 0.3290678
10 *11289:10 0.1765017
11 *11289:11 0.01038903
12 *11289:12 0.03038714
13 *11289:13 0.01707209
14 *11289:14 0.008634282
15 *11289:15 0.009775209
16 *11289:16 0.3319998
17 *11289:17 0.3242497
18 *11289:18 0.02003944
19 *11289:19 0.008941581
20 *11289:20 0.09307953
21 *11289:21 0.05815316
22 *11289:22 0.07307532
23 *11289:23 0.06937515
24 *11289:24 0.02350991
25 *11289:25 0.02440037
26 *11289:26 0.01047115

*RES
0 *79:Q *11289:26 0.08181818
1 *11289:19 *82:A2 0.08181819
2 *11289:20 *11289:19 0.5
3 *11289:20 *11289:18 0.4651786
4 *11289:18 *11289:17 0.25
5 *11289:17 *11289:16 13.3
6 *11289:10 *11289:9 0.2714286
7 *11289:10 *11289:6 5.433929
8 *11289:11 *11289:10 0.25
9 *11289:21 *11289:20 1.550893
10 *11289:22 *11289:21 0.25
11 *11289:24 *11289:23 0.25
12 *11289:23 *11289:22 2.714286
13 *11289:26 *11289:25 0.5
14 *11289:25 *11289:24 0.6651786
15 *11289:5 *81:A3 0.08181819
16 *11289:6 *11289:5 0.5
17 *11289:15 *11289:14 0.5
18 *11289:15 *11289:13 0.2033333
19 *11289:16 *11289:15 0.25
20 *11289:16 *11289:12 0.5428572
21 *11289:14 *83:A1 0.08181819
22 *11289:7 *97:A1 0.08181819
23 *11289:8 *11289:7 0.5
24 *11289:9 *11289:8 9.771429
25 *11289:12 *11289:11 0.2714286

*END

*D_NET *11290 0.9451253 //LENGTH 12.051 DR

*CONN
*I *97:Y O *L 0.000 *C 56.516 36.604
*I *87:A1 I *L 0.610 *C 59.848 44.356
*N *11290:2 *C 59.800 44.356
*N *11290:3 *C 59.800 44.356
*N *11290:4 *C 59.860 36.588
*N *11290:5 *C 59.860 36.544
*N *11290:6 *C 56.516 36.544
*N *11290:7 *C 56.516 36.544
*N *11290:8 *C 56.576 36.604
*N *11290:9 *C 56.576 36.604

*CAP
0 *97:Y 0.01673943
1 *87:A1 0.01417533
2 *11290:2 0.007949132
3 *11290:3 0.2957342
4 *11290:4 0.2884735
5 *11290:5 0.1397677
6 *11290:6 0.1446117
7 *11290:7 0.01027744
8 *11290:8 0.01688368
9 *11290:9 0.01051323

*RES
0 *97:Y *11290:9 0.1916667
1 *11290:9 *11290:8 0.5
2 *11290:8 *11290:7 0.1
3 *11290:7 *11290:6 0.25
4 *11290:6 *11290:5 5.971429
5 *11290:4 *11290:3 13.87232
6 *11290:5 *11290:4 0.25
7 *11290:2 *87:A1 0.08181819
8 *11290:3 *11290:2 0.5

*END

*D_NET *11291 0.6600356 //LENGTH 6.830 DR

*CONN
*I *87:Y O *L 0.000 *C 60.620 44.825
*I *77:D I *L 0.547 *C 66.700 44.600
*N *11291:2 *C 66.700 44.600
*N *11291:3 *C 66.700 44.752
*N *11291:4 *C 66.700 44.752
*N *11291:5 *C 60.620 44.752
*N *11291:6 *C 60.620 44.752
*N *11291:7 *C 60.620 44.872
*N *11291:8 *C 60.620 44.872

*CAP
0 *87:Y 0.01360894
1 *77:D 0.001
2 *11291:2 0.01062093
3 *11291:3 0.009613831
4 *11291:4 0.3013427
5 *11291:5 0.2972514
6 *11291:6 0.00931823
7 *11291:7 0.009896858
8 *11291:8 0.007382742

*RES
0 *87:Y *11291:8 0.08181819
1 *11291:8 *11291:7 0.5
2 *11291:7 *11291:6 0.1916667
3 *11291:6 *11291:5 0.25
4 *11291:5 *11291:4 10.85714
5 *11291:3 *11291:2 0.1916667
6 *11291:4 *11291:3 0.25
7 *11291:2 *77:D 0.5

*END

*D_NET *11292 1.523413 //LENGTH 16.836 DR

*CONN
*I *86:Y O *L 0.000 *C 63.199 35.727
*I *88:D I *L 0.547 *C 67.004 29.216
*I *82:A1 I *L 0.513 *C 63.192 41.164
*N *11292:3 *C 63.204 35.683
*N *11292:4 *C 63.144 41.164
*N *11292:5 *C 63.144 41.164
*N *11292:6 *C 67.004 29.260
*N *11292:7 *C 67.004 30.421
*N *11292:8 *C 67.004 30.464
*N *11292:9 *C 63.356 30.464
*N *11292:10 *C 63.356 30.508
*N *11292:11 *C 63.356 35.691
*N *11292:12 *C 63.204 35.693

*CAP
0 *86:Y 0.009383505
1 *88:D 0.001
2 *82:A1 0.01601067
3 *11292:3 0.0152638
4 *11292:4 0.009784479
5 *11292:5 0.2536214
6 *11292:6 0.05803972
7 *11292:7 0.05704549
8 *11292:8 0.1637633
9 *11292:9 0.1625912
10 *11292:10 0.2517332
11 *11292:11 0.2703339
12 *11292:12 0.2548423

*RES
0 *86:Y *11292:12 0.5
1 *86:Y *11292:3 0.1939561
2 *11292:6 *88:D 0.5
3 *11292:7 *11292:6 2.073214
4 *11292:8 *11292:7 0.25
5 *11292:10 *11292:9 0.25
6 *11292:9 *11292:8 6.514286
7 *11292:4 *82:A1 0.08181819
8 *11292:5 *11292:4 0.5
9 *11292:12 *11292:11 0.262069
10 *11292:12 *11292:5 9.769644
11 *11292:11 *11292:10 9.447322

*END

*D_NET *11293 0.2863697 //LENGTH 3.135 DR

*CONN
*I *85:Y O *L 0.000 *C 63.660 48.460
*I *78:D I *L 0.547 *C 63.356 49.220
*N *11293:2 *C 63.416 49.220
*N *11293:3 *C 63.416 49.220
*N *11293:4 *C 63.356 49.051
*N *11293:5 *C 63.356 49.008
*N *11293:6 *C 64.268 49.008
*N *11293:7 *C 64.268 48.965
*N *11293:8 *C 64.328 48.460
*N *11293:9 *C 64.283 48.460

*CAP
0 *85:Y 0.05410483
1 *78:D 0.01623339
2 *11293:2 0.0100072
3 *11293:3 0.02191184
4 *11293:4 0.009287479
5 *11293:5 0.03884905
6 *11293:6 0.03813465
7 *11293:7 0.01951193
8 *11293:8 0.0304507
9 *11293:9 0.04787864

*RES
0 *85:Y *11293:9 1.246
1 *11293:9 *11293:8 0.5
2 *11293:8 *11293:7 0.9008929
3 *11293:7 *11293:6 0.25
4 *11293:6 *11293:5 1.628571
5 *11293:4 *11293:3 0.2825
6 *11293:5 *11293:4 0.25
7 *11293:2 *78:D 0.1916667
8 *11293:3 *11293:2 0.5

*END

*D_NET *11294 0.4776824 //LENGTH 5.987 DR

*CONN
*I *82:Y O *L 0.000 *C 64.116 40.404
*I *79:D I *L 0.547 *C 68.524 39.220
*N *11294:2 *C 68.524 39.220
*N *11294:3 *C 68.524 39.280
*N *11294:4 *C 64.268 39.280
*N *11294:5 *C 64.268 39.324
*N *11294:6 *C 64.328 40.404
*N *11294:7 *C 64.283 40.404

*CAP
0 *82:Y 0.02220421
1 *79:D 0.001
2 *11294:2 0.001
3 *11294:3 0.1663471
4 *11294:4 0.1658904
5 *11294:5 0.04680834
6 *11294:6 0.05845428
7 *11294:7 0.01597801

*RES
0 *82:Y *11294:7 0.334
1 *11294:7 *11294:6 0.5
2 *11294:6 *11294:5 1.929464
3 *11294:5 *11294:4 0.25
4 *11294:4 *11294:3 7.6
5 *11294:2 *79:D 0.5
6 *11294:3 *11294:2 0.25

*END

*D_NET *11295 1.106823 //LENGTH 13.123 DR

*CONN
*I *81:Y O *L 0.000 *C 54.919 44.623
*I *80:D I *L 0.547 *C 58.936 52.564
*N *11295:2 *C 58.779 52.564
*N *11295:3 *C 58.736 52.564
*N *11295:4 *C 58.796 44.492
*N *11295:5 *C 58.796 44.448
*N *11295:6 *C 54.844 44.448
*N *11295:7 *C 54.844 44.448
*N *11295:8 *C 54.844 44.568
*N *11295:9 *C 54.844 44.593

*CAP
0 *81:Y 0.0168333
1 *80:D 0.01913693
2 *11295:2 0.01291074
3 *11295:3 0.353784
4 *11295:4 0.3428428
5 *11295:5 0.1627519
6 *11295:6 0.1647722
7 *11295:7 0.008834182
8 *11295:8 0.01435041
9 *11295:9 0.0106071

*RES
0 *81:Y *11295:9 0.15
1 *11295:9 *11295:8 0.5
2 *11295:8 *11295:7 0.1916667
3 *11295:7 *11295:6 0.25
4 *11295:6 *11295:5 7.057143
5 *11295:4 *11295:3 14.41518
6 *11295:5 *11295:4 0.25
7 *11295:2 *80:D 0.2616667
8 *11295:3 *11295:2 0.5

*END

*D_NET *11296 1.264208 //LENGTH 14.249 DR

*CONN
*I *79:QN O *L 0.000 *C 64.694 39.741
*I *84:A2 I *L 0.542 *C 58.492 39.368
*I *97:A4 I *L 0.575 *C 55.908 35.844
*N *11296:3 *C 55.908 35.904
*N *11296:4 *C 55.908 35.935
*N *11296:5 *C 55.908 36.197
*N *11296:6 *C 55.908 36.240
*N *11296:7 *C 58.492 36.240
*N *11296:8 *C 58.492 36.284
*N *11296:9 *C 58.492 39.280
*N *11296:10 *C 58.492 39.280
*N *11296:11 *C 58.492 39.311
*N *11296:12 *C 58.492 39.644
*N *11296:13 *C 64.724 39.584
*N *11296:14 *C 64.724 39.628
*N *11296:15 *C 64.664 39.796
*N *11296:16 *C 64.664 39.796

*CAP
0 *79:QN 0.01442037
1 *84:A2 0.01468915
2 *97:A4 0.01879242
3 *11296:3 0.01256623
4 *11296:4 0.03093272
5 *11296:5 0.03004226
6 *11296:6 0.114096
7 *11296:7 0.1181266
8 *11296:8 0.1797369
9 *11296:9 0.008462955
10 *11296:10 0.180215
11 *11296:11 0.01266849
12 *11296:12 0.2505603
13 *11296:13 0.2378695
14 *11296:14 0.01144489
15 *11296:15 0.0213903
16 *11296:16 0.008194173

*RES
0 *79:QN *11296:16 0.08181819
1 *11296:9 *84:A2 0.08181819
2 *11296:10 *11296:9 0.5
3 *11296:10 *11296:8 5.350893
4 *11296:8 *11296:7 0.25
5 *11296:7 *11296:6 4.614286
6 *11296:5 *11296:4 0.4669643
7 *11296:6 *11296:5 0.25
8 *11296:3 *97:A4 0.1916667
9 *11296:4 *11296:3 0.5
10 *11296:11 *11296:10 0.25
11 *11296:14 *11296:13 0.25
12 *11296:13 *11296:12 11.12857
13 *11296:16 *11296:15 0.5
14 *11296:15 *11296:14 0.3008929
15 *11296:12 *11296:11 0.5946429

*END

*D_NET *11297 2.919356 //LENGTH 25.119 DR

*CONN
*I *78:QN O *L 0.000 *C 59.526 48.816
*I *90:A1 I *L 1.218 *C 58.036 47.980
*I *83:A2 I *L 0.512 *C 56.060 40.848
*I *96:A4 I *L 0.575 *C 56.212 34.603
*I *93:A4 I *L 0.575 *C 55.617 31.284
*N *11297:5 *C 55.664 31.284
*N *11297:6 *C 55.664 31.284
*N *11297:7 *C 55.604 34.172
*N *11297:8 *C 56.212 34.543
*N *11297:9 *C 56.212 34.500
*N *11297:10 *C 56.212 34.156
*N *11297:11 *C 56.212 34.112
*N *11297:12 *C 55.756 34.112
*N *11297:13 *C 55.756 34.186
*N *11297:14 *C 55.756 40.757
*N *11297:15 *C 55.756 40.800
*N *11297:16 *C 56.060 40.800
*N *11297:17 *C 56.060 40.800
*N *11297:18 *C 56.060 40.800
*N *11297:19 *C 56.060 47.445
*N *11297:20 *C 56.060 47.488
*N *11297:21 *C 58.036 47.937
*N *11297:22 *C 58.036 47.532
*N *11297:23 *C 58.036 47.488
*N *11297:24 *C 58.644 47.488
*N *11297:25 *C 58.644 47.532
*N *11297:26 *C 58.584 48.791
*N *11297:27 *C 58.629 48.791

*CAP
0 *78:QN 0.07017596
1 *90:A1 0.001
2 *83:A2 0.01896844
3 *96:A4 0.01563538
4 *93:A4 0.01759069
5 *11297:5 0.01136449
6 *11297:6 0.1567652
7 *11297:7 0.1594024
8 *11297:8 0.009409186
9 *11297:9 0.03474428
10 *11297:10 0.03385382
11 *11297:11 0.02699716
12 *11297:12 0.02473472
13 *11297:13 0.4410087
14 *11297:14 0.4332038
15 *11297:15 0.01733633
16 *11297:16 0.02022596
17 *11297:17 0.01274225
18 *11297:18 0.436653
19 *11297:19 0.4360981
20 *11297:20 0.09093481
21 *11297:21 0.02736912
22 *11297:22 0.02609817
23 *11297:23 0.1186475
24 *11297:24 0.03219185
25 *11297:25 0.08243394
26 *11297:26 0.09982105
27 *11297:27 0.06394976

*RES
0 *78:QN *11297:27 1.794
1 *11297:17 *83:A2 0.08181819
2 *11297:18 *11297:17 0.5
3 *11297:18 *11297:16 0.25
4 *11297:22 *11297:21 0.8366072
5 *11297:23 *11297:22 0.25
6 *11297:23 *11297:20 3.528572
7 *11297:21 *90:A1 0.5
8 *11297:19 *11297:18 11.86518
9 *11297:20 *11297:19 0.25
10 *11297:16 *11297:15 0.5428572
11 *11297:14 *11297:13 11.73393
12 *11297:15 *11297:14 0.25
13 *11297:5 *93:A4 0.08181817
14 *11297:6 *11297:5 0.5
15 *11297:13 *11297:12 0.25
16 *11297:13 *11297:7 0.2714286
17 *11297:12 *11297:11 0.8142858
18 *11297:10 *11297:9 0.6142858
19 *11297:11 *11297:10 0.25
20 *11297:8 *96:A4 0.08181819
21 *11297:9 *11297:8 0.5
22 *11297:25 *11297:24 0.25
23 *11297:24 *11297:23 1.085714
24 *11297:27 *11297:26 0.5
25 *11297:26 *11297:25 2.249107
26 *11297:7 *11297:6 5.157143

*END

*D_NET *11298 0.808067 //LENGTH 8.632 DR

*CONN
*I *83:Y O *L 0.000 *C 56.820 41.490
*I *82:A4 I *L 0.575 *C 63.496 41.316
*N *11298:2 *C 63.448 41.316
*N *11298:3 *C 63.448 41.316
*N *11298:4 *C 63.508 40.844
*N *11298:5 *C 63.508 40.800
*N *11298:6 *C 56.972 40.800
*N *11298:7 *C 56.972 40.844
*N *11298:8 *C 57.032 41.468
*N *11298:9 *C 56.958 41.466

*CAP
0 *83:Y 0.01917329
1 *82:A4 0.0174195
2 *11298:2 0.01119331
3 *11298:3 0.04474204
4 *11298:4 0.03471671
5 *11298:5 0.2809866
6 *11298:6 0.2820674
7 *11298:7 0.04370585
8 *11298:8 0.06111518
9 *11298:9 0.01294709

*RES
0 *83:Y *11298:9 0.2145454
1 *11298:9 *11298:8 0.5
2 *11298:8 *11298:7 1.115179
3 *11298:7 *11298:6 0.25
4 *11298:6 *11298:5 11.67143
5 *11298:4 *11298:3 0.8437501
6 *11298:5 *11298:4 0.25
7 *11298:2 *82:A4 0.08181819
8 *11298:3 *11298:2 0.5

*END

*D_NET *11299 0.4205995 //LENGTH 4.638 DR

*CONN
*I *84:Y O *L 0.000 *C 57.780 39.243
*I *83:A3 I *L 0.554 *C 56.424 41.772
*N *11299:2 *C 56.455 41.772
*N *11299:3 *C 56.820 41.772
*N *11299:4 *C 56.820 39.628
*N *11299:5 *C 56.820 39.584
*N *11299:6 *C 57.732 39.584
*N *11299:7 *C 57.732 39.541
*N *11299:8 *C 57.672 39.213
*N *11299:9 *C 57.672 39.213

*CAP
0 *84:Y 0.01591627
1 *83:A3 0.001
2 *11299:2 0.01370335
3 *11299:3 0.1329473
4 *11299:4 0.1069048
5 *11299:5 0.03784885
6 *11299:6 0.03895246
7 *11299:7 0.02362149
8 *11299:8 0.04001486
9 *11299:9 0.009690079

*RES
0 *84:Y *11299:9 0.3116667
1 *11299:9 *11299:8 0.5
2 *11299:8 *11299:7 0.5848215
3 *11299:7 *11299:6 0.25
4 *11299:6 *11299:5 1.628572
5 *11299:4 *11299:3 3.829464
6 *11299:5 *11299:4 0.25
7 *11299:2 *83:A3 0.5
8 *11299:3 *11299:2 0.6517857

*END

*D_NET *11300 0.4306494 //LENGTH 5.229 DR

*CONN
*I *90:Y O *L 0.000 *C 59.404 47.725
*I *85:A2 I *L 0.542 *C 63.052 47.892
*N *11300:2 *C 63.052 47.912
*N *11300:3 *C 63.052 47.869
*N *11300:4 *C 63.052 47.532
*N *11300:5 *C 63.052 47.488
*N *11300:6 *C 59.404 47.488
*N *11300:7 *C 59.404 47.532
*N *11300:8 *C 59.464 47.725
*N *11300:9 *C 59.464 47.725

*CAP
0 *90:Y 0.01336743
1 *85:A2 0.01526057
2 *11300:2 0.009034373
3 *11300:3 0.03667409
4 *11300:4 0.03578363
5 *11300:5 0.1406216
6 *11300:6 0.1420263
7 *11300:7 0.009346935
8 *11300:8 0.02139315
9 *11300:9 0.007141236

*RES
0 *90:Y *11300:9 0.1916667
1 *11300:9 *11300:8 0.5
2 *11300:8 *11300:7 0.3455357
3 *11300:7 *11300:6 0.25
4 *11300:6 *11300:5 6.514286
5 *11300:4 *11300:3 0.8366072
6 *11300:5 *11300:4 0.25
7 *11300:2 *85:A2 0.1618182
8 *11300:3 *11300:2 0.5

*END

*D_NET *11301 2.318798 //LENGTH 24.548 DR

*CONN
*I *88:QN O *L 0.000 *C 63.174 29.709
*I *92:A4 I *L 0.575 *C 55.711 29.191
*I *91:A4 I *L 0.575 *C 55.756 25.837
*I *94:A4 I *L 0.575 *C 61.988 32.525
*I *95:A4 I *L 0.575 *C 68.524 34.603
*N *11301:5 *C 68.524 34.543
*N *11301:6 *C 68.524 34.500
*N *11301:7 *C 68.524 32.332
*N *11301:8 *C 68.524 32.288
*N *11301:9 *C 61.988 32.585
*N *11301:10 *C 61.988 32.585
*N *11301:11 *C 61.988 32.408
*N *11301:12 *C 61.988 32.408
*N *11301:13 *C 63.204 32.288
*N *11301:14 *C 63.204 32.245
*N *11301:15 *C 55.756 25.897
*N *11301:16 *C 55.756 25.941
*N *11301:17 *C 55.711 29.191
*N *11301:18 *C 55.756 29.368
*N *11301:19 *C 55.756 29.368
*N *11301:20 *C 63.204 29.248
*N *11301:21 *C 63.204 29.292
*N *11301:22 *C 63.144 29.764
*N *11301:23 *C 63.144 29.764

*CAP
0 *88:QN 0.0137584
1 *92:A4 0.001
2 *91:A4 0.01529458
3 *94:A4 0.01776565
4 *95:A4 0.01706123
5 *11301:5 0.01083503
6 *11301:6 0.1496854
7 *11301:7 0.1487949
8 *11301:8 0.2236603
9 *11301:9 0.01153946
10 *11301:10 0.01537738
11 *11301:11 0.01473978
12 *11301:12 0.05339044
13 *11301:13 0.2735751
14 *11301:14 0.1466281
15 *11301:15 0.009068389
16 *11301:16 0.2133453
17 *11301:17 0.2344025
18 *11301:18 0.01148442
19 *11301:19 0.2570982
20 *11301:20 0.256408
21 *11301:21 0.02633673
22 *11301:22 0.1900164
23 *11301:23 0.007532207

*RES
0 *88:QN *11301:23 0.08181819
1 *11301:23 *11301:22 0.5
2 *11301:22 *11301:21 0.84375
3 *11301:22 *11301:14 4.429465
4 *11301:17 *92:A4 0.5
5 *11301:17 *11301:16 5.804465
6 *11301:14 *11301:13 0.25
7 *11301:13 *11301:12 2.171429
8 *11301:13 *11301:8 9.500001
9 *11301:7 *11301:6 3.871429
10 *11301:8 *11301:7 0.25
11 *11301:5 *95:A4 0.08181819
12 *11301:6 *11301:5 0.5
13 *11301:11 *11301:10 0.1916667
14 *11301:12 *11301:11 0.25
15 *11301:9 *94:A4 0.08181819
16 *11301:10 *11301:9 0.5
17 *11301:21 *11301:20 0.25
18 *11301:20 *11301:19 13.3
19 *11301:18 *11301:17 0.1916667
20 *11301:19 *11301:18 0.25
21 *11301:15 *91:A4 0.08181819
22 *11301:16 *11301:15 0.5

*END

*D_NET *11302 0.324159 //LENGTH 2.937 DR

*CONN
*I *92:Y O *L 0.000 *C 55.123 29.819
*I *93:A3 I *L 0.554 *C 55.392 31.740
*N *11302:2 *C 54.996 29.734
*N *11302:3 *C 55.392 31.740
*N *11302:4 *C 55.452 29.900
*N *11302:5 *C 55.452 29.856
*N *11302:6 *C 54.996 29.856
*N *11302:7 *C 54.996 29.810
*N *11302:8 *C 54.996 29.849

*CAP
0 *92:Y 0.0134614
1 *93:A3 0.001
2 *11302:2 0.01346474
3 *11302:3 0.1159026
4 *11302:4 0.1043302
5 *11302:5 0.02618512
6 *11302:6 0.02618512
7 *11302:7 0.001
8 *11302:8 0.02262973

*RES
0 *92:Y *11302:8 0.1866667
1 *11302:3 *93:A3 0.5
2 *11302:4 *11302:3 3.286608
3 *11302:5 *11302:4 0.25
4 *11302:7 *11302:6 0.25
5 *11302:7 *11302:2 0.1266667
6 *11302:6 *11302:5 0.8142858
7 *11302:8 *11302:7 0.5

*END

*D_NET *11303 0.5462628 //LENGTH 5.221 DR

*CONN
*I *91:Y O *L 0.000 *C 55.148 26.720
*I *93:A2 I *L 0.512 *C 55.745 30.828
*N *11303:2 *C 55.745 30.828
*N *11303:3 *C 55.685 30.204
*N *11303:4 *C 55.685 30.160
*N *11303:5 *C 55.148 30.160
*N *11303:6 *C 55.148 30.117
*N *11303:7 *C 55.088 26.724
*N *11303:8 *C 55.088 26.724

*CAP
0 *91:Y 0.01966044
1 *93:A2 0.001
2 *11303:2 0.06449998
3 *11303:3 0.05215997
4 *11303:4 0.03489858
5 *11303:5 0.03489858
6 *11303:6 0.1588517
7 *11303:7 0.1668594
8 *11303:8 0.01343424

*RES
0 *91:Y *11303:8 0.08181819
1 *11303:2 *93:A2 0.5
2 *11303:3 *11303:2 1.115179
3 *11303:4 *11303:3 0.25
4 *11303:6 *11303:5 0.25
5 *11303:5 *11303:4 0.9589286
6 *11303:8 *11303:7 0.5
7 *11303:7 *11303:6 6.058036

*END

*D_NET *11304 1.11447 //LENGTH 13.550 DR

*CONN
*I *95:Y O *L 0.000 *C 67.916 34.075
*I *96:A3 I *L 0.554 *C 56.000 35.084
*N *11304:2 *C 56.000 35.084
*N *11304:3 *C 56.060 34.460
*N *11304:4 *C 56.060 34.416
*N *11304:5 *C 67.916 34.416
*N *11304:6 *C 67.916 34.373
*N *11304:7 *C 67.856 34.045
*N *11304:8 *C 67.856 34.045

*CAP
0 *95:Y 0.01779585
1 *96:A3 0.001
2 *11304:2 0.07088638
3 *11304:3 0.0566977
4 *11304:4 0.4528937
5 *11304:5 0.45644
6 *11304:6 0.01675135
7 *11304:7 0.03043501
8 *11304:8 0.01156965

*RES
0 *95:Y *11304:8 0.1916667
1 *11304:2 *96:A3 0.5
2 *11304:3 *11304:2 1.115179
3 *11304:4 *11304:3 0.25
4 *11304:6 *11304:5 0.25
5 *11304:5 *11304:4 21.17143
6 *11304:8 *11304:7 0.5
7 *11304:7 *11304:6 0.5848215

*END

*D_NET *11305 0.5040461 //LENGTH 6.905 DR

*CONN
*I *94:Y O *L 0.000 *C 61.380 33.260
*I *96:A1 I *L 0.513 *C 56.546 34.476
*N *11305:2 *C 56.715 34.476
*N *11305:3 *C 56.760 34.476
*N *11305:4 *C 56.820 33.244
*N *11305:5 *C 56.820 33.200
*N *11305:6 *C 61.380 33.200
*N *11305:7 *C 61.380 33.200
*N *11305:8 *C 61.320 33.260
*N *11305:9 *C 61.320 33.260

*CAP
0 *94:Y 0.01448454
1 *96:A1 0.02089631
2 *11305:2 0.01467011
3 *11305:3 0.0623559
4 *11305:4 0.04985471
5 *11305:5 0.1542271
6 *11305:6 0.1550446
7 *11305:7 0.009559276
8 *11305:8 0.0146953
9 *11305:9 0.008258341

*RES
0 *94:Y *11305:9 0.1916667
1 *11305:2 *96:A1 0.338
2 *11305:3 *11305:2 0.5
3 *11305:4 *11305:3 2.200893
4 *11305:5 *11305:4 0.25
5 *11305:7 *11305:6 0.25
6 *11305:6 *11305:5 8.142858
7 *11305:9 *11305:8 0.5
8 *11305:8 *11305:7 0.1

*END

*D_NET *11306 0.2145163 //LENGTH 2.021 DR

*CONN
*I *96:Y O *L 0.000 *C 55.604 34.932
*I *97:A3 I *L 0.554 *C 56.060 35.401
*N *11306:2 *C 56.060 35.448
*N *11306:3 *C 56.060 35.448
*N *11306:4 *C 56.060 35.328
*N *11306:5 *C 56.060 35.328
*N *11306:6 *C 55.452 35.328
*N *11306:7 *C 55.452 35.285
*N *11306:8 *C 55.392 34.932
*N *11306:9 *C 55.437 34.932

*CAP
0 *96:Y 0.02052502
1 *97:A3 0.01735675
2 *11306:2 0.01113055
3 *11306:3 0.01740015
4 *11306:4 0.0166458
5 *11306:5 0.02824265
6 *11306:6 0.02793265
7 *11306:7 0.02269389
8 *11306:8 0.03828999
9 *11306:9 0.01429882

*RES
0 *96:Y *11306:9 0.3340001
1 *11306:2 *97:A3 0.08181818
2 *11306:3 *11306:2 0.5
3 *11306:4 *11306:3 0.1916667
4 *11306:5 *11306:4 0.25
5 *11306:7 *11306:6 0.25
6 *11306:6 *11306:5 1.085714
7 *11306:9 *11306:8 0.5
8 *11306:8 *11306:7 0.6294643

*END

*D_NET *11307 0.4365914 //LENGTH 5.748 DR

*CONN
*I *93:Y O *L 0.000 *C 54.996 31.648
*I *97:A2 I *L 0.512 *C 55.741 36.300
*N *11307:2 *C 55.437 36.300
*N *11307:3 *C 55.361 36.300
*N *11307:4 *C 54.996 36.300
*N *11307:5 *C 54.996 31.679

*CAP
0 *93:Y 0.001
1 *97:A2 0.02523887
2 *11307:2 0.01901268
3 *11307:3 0.01346325
4 *11307:4 0.202317
5 *11307:5 0.1755596

*RES
0 *93:Y *11307:5 0.5
1 *11307:2 *97:A2 0.6080001
2 *11307:3 *11307:2 0.5
3 *11307:5 *11307:4 8.251786
4 *11307:4 *11307:3 0.6517857

*END

*D_NET *11308 1.576623 //LENGTH 19.305 DR

*CONN
*I *89:Y O *L 0.000 *C 70.044 41.362
*I *86:A1 I *L 0.594 *C 62.140 35.996
*I *87:A2 I *L 0.699 *C 60.164 44.533
*N *11308:3 *C 70.044 41.295
*N *11308:4 *C 60.164 44.448
*N *11308:5 *C 60.164 44.448
*N *11308:6 *C 62.140 44.448
*N *11308:7 *C 62.140 44.405
*N *11308:8 *C 62.080 35.996
*N *11308:9 *C 62.080 35.996
*N *11308:10 *C 62.140 41.408
*N *11308:11 *C 62.140 41.408
*N *11308:12 *C 70.044 41.408
*N *11308:13 *C 70.044 41.370
*N *11308:14 *C 70.044 41.417

*CAP
0 *89:Y 0.01555946
1 *86:A1 0.01330598
2 *87:A2 0.001
3 *11308:3 0.01376558
4 *11308:4 0.001
5 *11308:5 0.08462521
6 *11308:6 0.08664441
7 *11308:7 0.1095265
8 *11308:8 0.007079781
9 *11308:9 0.226181
10 *11308:10 0.3345509
11 *11308:11 0.3376636
12 *11308:12 0.3353877
13 *11308:13 0.001
14 *11308:14 0.009333264

*RES
0 *89:Y *11308:14 0.08181818
1 *11308:10 *11308:9 9.664286
2 *11308:10 *11308:7 5.350893
3 *11308:11 *11308:10 0.25
4 *11308:13 *11308:12 0.25
5 *11308:13 *11308:3 0.125
6 *11308:12 *11308:11 14.11429
7 *11308:14 *11308:13 0.5
8 *11308:7 *11308:6 0.25
9 *11308:6 *11308:5 3.528572
10 *11308:4 *87:A2 0.5
11 *11308:5 *11308:4 0.25
12 *11308:8 *86:A1 0.1916667
13 *11308:9 *11308:8 0.5

*END

*D_NET *11309 0.4087756 //LENGTH 4.757 DR

*CONN
*I *100:Y O *L 0.000 *C 69.284 47.092
*I *98:A2 I *L 0.512 *C 72.476 46.345
*N *11309:2 *C 72.476 46.392
*N *11309:3 *C 72.476 46.392
*N *11309:4 *C 72.476 46.272
*N *11309:5 *C 72.476 46.272
*N *11309:6 *C 69.588 46.272
*N *11309:7 *C 69.588 46.316
*N *11309:8 *C 69.528 47.092
*N *11309:9 *C 69.483 47.092

*CAP
0 *100:Y 0.02619614
1 *98:A2 0.01448192
2 *11309:2 0.008255726
3 *11309:3 0.01286648
4 *11309:4 0.01228193
5 *11309:5 0.1060869
6 *11309:6 0.1062623
7 *11309:7 0.04276371
8 *11309:8 0.05961065
9 *11309:9 0.01996995

*RES
0 *100:Y *11309:9 0.398
1 *11309:9 *11309:8 0.5
2 *11309:8 *11309:7 1.386607
3 *11309:7 *11309:6 0.25
4 *11309:6 *11309:5 5.157143
5 *11309:4 *11309:3 0.1916667
6 *11309:5 *11309:4 0.25
7 *11309:2 *98:A2 0.08909091
8 *11309:3 *11309:2 0.5

*END

*D_NET *11310 0.5891823 //LENGTH 5.281 DR

*CONN
*I *99:Y O *L 0.000 *C 72.780 50.441
*I *98:A3 I *L 0.554 *C 72.840 45.420
*N *11310:2 *C 72.840 45.420
*N *11310:3 *C 72.840 50.436
*N *11310:4 *C 72.840 50.436

*CAP
0 *99:Y 0.0201331
1 *98:A3 0.001
2 *11310:2 0.2811329
3 *11310:3 0.2730094
4 *11310:4 0.01390691

*RES
0 *99:Y *11310:4 0.08181819
1 *11310:4 *11310:3 0.5
2 *11310:3 *11310:2 8.957143
3 *11310:2 *98:A3 0.5

*END

*D_NET *11311 1.051105 //LENGTH 9.125 DR

*CONN
*I *101:Y O *L 0.000 *C 72.172 52.548
*I *99:A4 I *L 0.575 *C 72.172 51.323
*I *100:A4 I *L 0.575 *C 68.676 47.992
*N *11311:3 *C 68.676 47.944
*N *11311:4 *C 68.676 47.988
*N *11311:5 *C 68.676 50.485
*N *11311:6 *C 68.676 50.528
*N *11311:7 *C 72.172 50.528
*N *11311:8 *C 72.172 50.572
*N *11311:9 *C 72.172 51.263
*N *11311:10 *C 72.172 51.263
*N *11311:11 *C 72.172 52.420
*N *11311:12 *C 72.172 52.463

*CAP
0 *101:Y 0.01649794
1 *99:A4 0.01625487
2 *100:A4 0.01581098
3 *11311:3 0.009584783
4 *11311:4 0.1693835
5 *11311:5 0.168493
6 *11311:6 0.1527433
7 *11311:7 0.1525359
8 *11311:8 0.06021076
9 *11311:9 0.01002867
10 *11311:10 0.1712955
11 *11311:11 0.09799388
12 *11311:12 0.01027174

*RES
0 *101:Y *11311:12 0.08181819
1 *11311:12 *11311:11 0.5
2 *11311:11 *11311:10 2.065178
3 *11311:9 *99:A4 0.1390909
4 *11311:10 *11311:9 0.5
5 *11311:10 *11311:8 1.234822
6 *11311:8 *11311:7 0.25
7 *11311:7 *11311:6 6.242857
8 *11311:5 *11311:4 4.458929
9 *11311:6 *11311:5 0.25
10 *11311:3 *100:A4 0.08181819
11 *11311:4 *11311:3 0.5

*END

*D_NET *11312 0.2929139 //LENGTH 2.162 DR

*CONN
*I *102:Y O *L 0.000 *C 72.780 47.396
*I *98:A4 I *L 0.575 *C 72.628 45.901
*N *11312:2 *C 72.568 45.901
*N *11312:3 *C 72.568 45.901
*N *11312:4 *C 72.568 47.396
*N *11312:5 *C 72.613 47.396

*CAP
0 *102:Y 0.01822669
1 *98:A4 0.021859
2 *11312:2 0.01563281
3 *11312:3 0.1104453
4 *11312:4 0.1147497
5 *11312:5 0.01200049

*RES
0 *102:Y *11312:5 0.3340001
1 *11312:5 *11312:4 0.5
2 *11312:4 *11312:3 2.669643
3 *11312:2 *98:A4 0.1916667
4 *11312:3 *11312:2 0.5

*END

*D_NET *11313 1.14044 //LENGTH 11.750 DR

*CONN
*I *36:Y O *L 0.000 *C 40.860 55.873
*I *209:A2 I *L 0.467 *C 42.978 56.100
*I *227:A3 I *L 0.590 *C 41.464 49.565
*I *205:A2 I *L 0.583 *C 41.316 51.236
*N *11313:4 *C 41.316 51.256
*N *11313:5 *C 41.316 51.213
*N *11313:6 *C 41.316 50.588
*N *11313:7 *C 41.400 49.580
*N *11313:8 *C 41.400 49.580
*N *11313:9 *C 41.468 50.132
*N *11313:10 *C 41.012 50.132
*N *11313:11 *C 41.012 50.588
*N *11313:12 *C 42.928 56.060
*N *11313:13 *C 42.928 56.060
*N *11313:14 *C 42.988 56.000
*N *11313:15 *C 42.988 56.000
*N *11313:16 *C 41.012 56.000
*N *11313:17 *C 41.012 55.957
*N *11313:18 *C 40.862 56.060
*N *11313:19 *C 40.861 55.946

*CAP
0 *36:Y 0.001
1 *209:A2 0.0125925
2 *227:A3 0.01646158
3 *205:A2 0.01436428
4 *11313:4 0.008138082
5 *11313:5 0.04159067
6 *11313:6 0.06337249
7 *11313:7 0.01023539
8 *11313:8 0.04094444
9 *11313:9 0.05771479
10 *11313:10 0.04861105
11 *11313:11 0.3261016
12 *11313:12 0.006366308
13 *11313:13 0.01110398
14 *11313:14 0.0126546
15 *11313:15 0.07081538
16 *11313:16 0.07477094
17 *11313:17 0.2861471
18 *11313:18 0.02667429
19 *11313:19 0.01078062

*RES
0 *36:Y *11313:19 0.5
1 *11313:7 *227:A3 0.1916667
2 *11313:8 *11313:7 0.5
3 *11313:17 *11313:16 0.25
4 *11313:17 *11313:11 9.664286
5 *11313:16 *11313:15 3.528572
6 *11313:14 *11313:13 0.1
7 *11313:15 *11313:14 0.25
8 *11313:12 *209:A2 0.08181819
9 *11313:13 *11313:12 0.5
10 *11313:4 *205:A2 0.08181819
11 *11313:5 *11313:4 0.5
12 *11313:19 *11313:18 0.1965517
13 *11313:18 *11313:17 0.26875
14 *11313:10 *11313:9 0.8142858
15 *11313:11 *11313:10 0.8142858
16 *11313:11 *11313:6 0.5428572
17 *11313:9 *11313:8 0.9857143
18 *11313:6 *11313:5 1.115179

*END

*D_NET *11315 1.707527 //LENGTH 16.400 DR

*CONN
*I *135:Y O *L 0.000 *C 43.748 41.281
*I *134:A3 I *L 0.522 *C 40.252 37.633
*I *114:A3 I *L 0.554 *C 42.592 32.044
*I *223:A1 I *L 0.603 *C 41.772 42.878
*N *11315:4 *C 41.772 42.835
*N *11315:5 *C 42.592 32.044
*N *11315:6 *C 42.532 31.984
*N *11315:7 *C 42.532 31.984
*N *11315:8 *C 41.772 31.984
*N *11315:9 *C 41.772 32.028
*N *11315:10 *C 40.252 37.633
*N *11315:11 *C 40.252 37.456
*N *11315:12 *C 40.252 37.456
*N *11315:13 *C 41.772 37.456
*N *11315:14 *C 41.772 37.456
*N *11315:15 *C 41.772 41.408
*N *11315:16 *C 41.772 41.408
*N *11315:17 *C 43.748 41.408
*N *11315:18 *C 43.748 41.408
*N *11315:19 *C 43.748 41.281

*CAP
0 *135:Y 0.001
1 *134:A3 0.001
2 *114:A3 0.001
3 *223:A1 0.001
4 *11315:4 0.08983366
5 *11315:5 0.01957474
6 *11315:6 0.01038406
7 *11315:7 0.03606398
8 *11315:8 0.03606398
9 *11315:9 0.2856151
10 *11315:10 0.01704475
11 *11315:11 0.01378825
12 *11315:12 0.07323001
13 *11315:13 0.07289396
14 *11315:14 0.5257203
15 *11315:15 0.3267487
16 *11315:16 0.08872036
17 *11315:17 0.08910863
18 *11315:18 0.009776833
19 *11315:19 0.008960194

*RES
0 *135:Y *11315:19 0.5
1 *11315:9 *11315:8 0.25
2 *11315:8 *11315:7 1.357143
3 *11315:6 *11315:5 0.1
4 *11315:7 *11315:6 0.25
5 *11315:5 *114:A3 0.5
6 *11315:4 *223:A1 0.5
7 *11315:15 *11315:14 7.057143
8 *11315:15 *11315:4 2.547322
9 *11315:16 *11315:15 0.25
10 *11315:18 *11315:17 0.25
11 *11315:17 *11315:16 3.528572
12 *11315:19 *11315:18 0.1916667
13 *11315:14 *11315:13 0.25
14 *11315:14 *11315:9 9.742858
15 *11315:13 *11315:12 2.714286
16 *11315:11 *11315:10 0.1916667
17 *11315:12 *11315:11 0.25
18 *11315:10 *134:A3 0.5

*END

*D_NET *11316 0.5523418 //LENGTH 7.050 DR

*CONN
*I *154:Y O *L 0.000 *C 41.296 22.397
*I *127:A2 I *L 0.467 *C 38.368 22.620
*I *236:A1 I *L 0.540 *C 41.456 19.428
*N *11316:3 *C 41.408 19.428
*N *11316:4 *C 41.365 19.428
*N *11316:5 *C 41.164 19.428
*N *11316:6 *C 38.368 22.620
*N *11316:7 *C 38.428 22.560
*N *11316:8 *C 38.428 22.560
*N *11316:9 *C 41.164 22.680
*N *11316:10 *C 41.164 22.680
*N *11316:11 *C 41.164 22.444

*CAP
0 *154:Y 0.001
1 *127:A2 0.001
2 *236:A1 0.01602522
3 *11316:3 0.009799027
4 *11316:4 0.009897028
5 *11316:5 0.1454104
6 *11316:6 0.009598143
7 *11316:7 0.01298117
8 *11316:8 0.1012139
9 *11316:9 0.1052437
10 *11316:10 0.009146848
11 *11316:11 0.1310263

*RES
0 *154:Y *11316:11 0.5
1 *11316:11 *11316:10 0.3366667
2 *11316:11 *11316:5 5.384821
3 *11316:3 *236:A1 0.08181819
4 *11316:4 *11316:3 0.5
5 *11316:10 *11316:9 0.25
6 *11316:9 *11316:8 4.935714
7 *11316:7 *11316:6 0.1
8 *11316:8 *11316:7 0.25
9 *11316:6 *127:A2 0.5
10 *11316:5 *11316:4 0.3580357

*END

*D_NET *11317 2.351098 //LENGTH 25.889 DR

*CONN
*I *122:Y O *L 0.000 *C 49.420 49.335
*I *234:A1 I *L 0.603 *C 46.951 49.579
*I *120:A1 I *L 0.552 *C 44.040 37.556
*I *116:A3 I *L 0.522 *C 37.516 37.628
*N *11317:4 *C 49.372 49.190
*N *11317:5 *C 37.516 37.583
*N *11317:6 *C 37.516 37.583
*N *11317:7 *C 37.516 37.760
*N *11317:8 *C 37.516 37.760
*N *11317:9 *C 43.992 37.516
*N *11317:10 *C 43.992 37.516
*N *11317:11 *C 44.052 37.717
*N *11317:12 *C 44.052 37.760
*N *11317:13 *C 44.812 37.760
*N *11317:14 *C 44.812 37.804
*N *11317:15 *C 44.812 49.269
*N *11317:16 *C 44.812 49.312
*N *11317:17 *C 47.022 49.609
*N *11317:18 *C 47.022 49.609
*N *11317:19 *C 46.942 49.540
*N *11317:20 *C 46.940 49.355
*N *11317:21 *C 46.940 49.312
*N *11317:22 *C 49.372 49.312
*N *11317:23 *C 49.372 49.266
*N *11317:24 *C 49.372 49.305

*CAP
0 *122:Y 0.01422
1 *234:A1 0.01652931
2 *120:A1 0.01469944
3 *116:A3 0.01391047
4 *11317:4 0.009944166
5 *11317:5 0.007684277
6 *11317:6 0.01097049
7 *11317:7 0.01008605
8 *11317:8 0.2942975
9 *11317:9 0.008473247
10 *11317:10 0.02311767
11 *11317:11 0.01279896
12 *11317:12 0.3225942
13 *11317:13 0.03427789
14 *11317:14 0.5171064
15 *11317:15 0.5171064
16 *11317:16 0.1137345
17 *11317:17 0.01030312
18 *11317:18 0.01625621
19 *11317:19 0.02523146
20 *11317:20 0.01169689
21 *11317:21 0.2226173
22 *11317:22 0.1144485
23 *11317:23 0.001
24 *11317:24 0.007993803

*RES
0 *122:Y *11317:24 0.08181819
1 *11317:11 *11317:10 0.3580357
2 *11317:12 *11317:11 0.25
3 *11317:12 *11317:8 11.67143
4 *11317:9 *120:A1 0.08181819
5 *11317:10 *11317:9 0.5
6 *11317:14 *11317:13 0.25
7 *11317:13 *11317:12 1.357143
8 *11317:15 *11317:14 20.47322
9 *11317:16 *11317:15 0.25
10 *11317:23 *11317:22 0.25
11 *11317:23 *11317:4 0.1266667
12 *11317:22 *11317:21 4.342857
13 *11317:24 *11317:23 0.5
14 *11317:20 *11317:19 0.3091667
15 *11317:21 *11317:20 0.25
16 *11317:21 *11317:16 3.821429
17 *11317:17 *234:A1 0.1916667
18 *11317:18 *11317:17 0.5
19 *11317:7 *11317:6 0.1916667
20 *11317:8 *11317:7 0.25
21 *11317:5 *116:A3 0.08181819
22 *11317:6 *11317:5 0.5
23 *11317:19 *11317:18 0.115

*END

*D_NET *11318 0.8361962 //LENGTH 8.719 DR

*CONN
*I *158:Y O *L 0.000 *C 39.644 48.050
*I *274:A1 I *L 0.533 *C 36.300 53.020
*N *11318:2 *C 36.300 52.960
*N *11318:3 *C 36.300 52.960
*N *11318:4 *C 39.644 52.960
*N *11318:5 *C 39.644 52.917
*N *11318:6 *C 39.644 48.149
*N *11318:7 *C 39.644 48.105

*CAP
0 *158:Y 0.01339149
1 *274:A1 0.001
2 *11318:2 0.001
3 *11318:3 0.1305313
4 *11318:4 0.1295955
5 *11318:5 0.2763111
6 *11318:6 0.2772016
7 *11318:7 0.007165293

*RES
0 *158:Y *11318:7 0.08181819
1 *11318:2 *274:A1 0.5
2 *11318:3 *11318:2 0.25
3 *11318:5 *11318:4 0.25
4 *11318:4 *11318:3 5.971429
5 *11318:7 *11318:6 0.5
6 *11318:6 *11318:5 8.779466

*END

*D_NET *11319 0.3500664 //LENGTH 3.921 DR

*CONN
*I *112:Y O *L 0.000 *C 39.340 44.107
*I *192:A I *L 0.588 *C 36.300 44.508
*N *11319:2 *C 36.300 44.448
*N *11319:3 *C 36.300 44.448
*N *11319:4 *C 39.340 44.448
*N *11319:5 *C 39.340 44.405
*N *11319:6 *C 39.280 44.077
*N *11319:7 *C 39.280 44.077

*CAP
0 *112:Y 0.01492465
1 *192:A 0.001
2 *11319:2 0.001
3 *11319:3 0.1416811
4 *11319:4 0.1403576
5 *11319:5 0.01507235
6 *11319:6 0.02733229
7 *11319:7 0.008698451

*RES
0 *112:Y *11319:7 0.1916667
1 *11319:2 *192:A 0.5
2 *11319:3 *11319:2 0.25
3 *11319:5 *11319:4 0.25
4 *11319:4 *11319:3 5.428572
5 *11319:7 *11319:6 0.5
6 *11319:6 *11319:5 0.5848215

*END

*D_NET *11320 2.264099 //LENGTH 22.061 DR

*CONN
*I *145:Y O *L 0.000 *C 41.924 39.172
*I *132:A2 I *L 0.583 *C 38.428 34.516
*I *114:A1 I *L 0.513 *C 42.064 32.652
*I *227:A1 I *L 0.671 *C 41.725 49.532
*N *11320:4 *C 41.792 49.527
*N *11320:5 *C 41.924 49.524
*N *11320:6 *C 42.016 32.652
*N *11320:7 *C 42.016 32.652
*N *11320:8 *C 42.076 34.476
*N *11320:9 *C 38.428 34.536
*N *11320:10 *C 38.428 34.536
*N *11320:11 *C 38.428 34.416
*N *11320:12 *C 38.428 34.416
*N *11320:13 *C 41.924 34.416
*N *11320:14 *C 41.924 34.476
*N *11320:15 *C 41.924 39.087
*N *11320:16 *C 41.924 39.087

*CAP
0 *145:Y 0.01551581
1 *132:A2 0.01607145
2 *114:A1 0.01568906
3 *227:A1 0.001
4 *11320:4 0.012316
5 *11320:5 0.5423503
6 *11320:6 0.009462867
7 *11320:7 0.1091331
8 *11320:8 0.1111153
9 *11320:9 0.009845253
10 *11320:10 0.01419982
11 *11320:11 0.01327394
12 *11320:12 0.1355084
13 *11320:13 0.1338728
14 *11320:14 0.2950458
15 *11320:15 0.8204097
16 *11320:16 0.009289611

*RES
0 *145:Y *11320:16 0.08181819
1 *11320:16 *11320:15 0.5
2 *11320:15 *11320:14 8.233929
3 *11320:15 *11320:5 18.6375
4 *11320:4 *227:A1 0.5
5 *11320:14 *11320:13 0.25
6 *11320:14 *11320:8 0.2714286
7 *11320:13 *11320:12 6.292858
8 *11320:11 *11320:10 0.1916667
9 *11320:12 *11320:11 0.25
10 *11320:9 *132:A2 0.08181819
11 *11320:10 *11320:9 0.5
12 *11320:6 *114:A1 0.08181819
13 *11320:7 *11320:6 0.5
14 *11320:5 *11320:4 0.2357143
15 *11320:8 *11320:7 3.257143

*END

*D_NET *11321 0.7135368 //LENGTH 8.748 DR

*CONN
*I *113:Y O *L 0.000 *C 51.196 33.728
*I *226:A1 I *L 0.552 *C 49.968 30.868
*I *228:A I *L 0.588 *C 52.108 31.132
*I *225:A3 I *L 0.554 *C 52.048 28.700
*N *11321:4 *C 52.048 28.700
*N *11321:5 *C 52.108 31.059
*N *11321:6 *C 52.108 31.103
*N *11321:7 *C 52.108 31.436
*N *11321:8 *C 49.920 30.828
*N *11321:9 *C 49.920 30.828
*N *11321:10 *C 49.980 31.333
*N *11321:11 *C 49.980 31.376
*N *11321:12 *C 51.196 31.376
*N *11321:13 *C 51.196 31.420
*N *11321:14 *C 51.136 33.716
*N *11321:15 *C 51.136 33.716

*CAP
0 *113:Y 0.01972321
1 *226:A1 0.01491674
2 *228:A 0.001
3 *225:A3 0.001
4 *11321:4 0.1124845
5 *11321:5 0.1006741
6 *11321:6 0.009175756
7 *11321:7 0.05025516
8 *11321:8 0.008690545
9 *11321:9 0.03617581
10 *11321:10 0.02859007
11 *11321:11 0.04902533
12 *11321:12 0.08296681
13 *11321:13 0.08763485
14 *11321:14 0.09772693
15 *11321:15 0.01349702

*RES
0 *113:Y *11321:15 0.08181819
1 *11321:5 *228:A 0.5
2 *11321:5 *11321:4 4.211607
3 *11321:13 *11321:12 0.25
4 *11321:12 *11321:11 2.171429
5 *11321:12 *11321:7 1.628571
6 *11321:15 *11321:14 0.5
7 *11321:14 *11321:13 4.100893
8 *11321:6 *11321:5 0.25
9 *11321:10 *11321:9 0.9008929
10 *11321:11 *11321:10 0.25
11 *11321:8 *226:A1 0.08181819
12 *11321:9 *11321:8 0.5
13 *11321:4 *225:A3 0.5
14 *11321:7 *11321:6 0.5946429

*END

*D_NET *11322 0.477345 //LENGTH 6.369 DR

*CONN
*I *231:Y O *L 0.000 *C 44.964 20.340
*I *236:A3 I *L 0.539 *C 41.256 18.668
*N *11322:2 *C 41.256 18.668
*N *11322:3 *C 41.316 18.608
*N *11322:4 *C 41.316 18.608
*N *11322:5 *C 45.116 18.608
*N *11322:6 *C 45.116 18.652
*N *11322:7 *C 45.176 20.340
*N *11322:8 *C 45.131 20.340

*CAP
0 *231:Y 0.02373079
1 *236:A3 0.001
2 *11322:2 0.0129543
3 *11322:3 0.007426032
4 *11322:4 0.138559
5 *11322:5 0.1383877
6 *11322:6 0.06339965
7 *11322:7 0.07438301
8 *11322:8 0.01750459

*RES
0 *231:Y *11322:8 0.3340001
1 *11322:8 *11322:7 0.5
2 *11322:7 *11322:6 3.015179
3 *11322:6 *11322:5 0.25
4 *11322:5 *11322:4 6.785715
5 *11322:3 *11322:2 0.1
6 *11322:4 *11322:3 0.25
7 *11322:2 *236:A3 0.5

*END

*D_NET *11323 0.4241435 //LENGTH 4.449 DR

*CONN
*I *222:Y O *L 0.000 *C 38.276 42.076
*I *156:A I *L 0.588 *C 36.908 39.340
*N *11323:2 *C 36.908 39.384
*N *11323:3 *C 36.848 42.076
*N *11323:4 *C 36.893 42.076

*CAP
0 *222:Y 0.1021457
1 *156:A 0.001
2 *11323:2 0.1075288
3 *11323:3 0.1175495
4 *11323:4 0.09591953

*RES
0 *222:Y *11323:4 2.952
1 *11323:4 *11323:3 0.5
2 *11323:3 *11323:2 4.808036
3 *11323:2 *156:A 0.5

*END

*D_NET *11324 1.450148 //LENGTH 18.769 DR

*CONN
*I *221:Q O *L 0.000 *C 48.490 24.400
*I *254:A1 I *L 0.536 *C 39.188 27.788
*I *232:A1 I *L 0.978 *C 47.050 27.940
*I *326:A I *L 0.564 *C 50.740 27.788
*N *11324:4 *C 50.740 27.745
*N *11324:5 *C 50.740 25.948
*N *11324:6 *C 50.740 25.904
*N *11324:7 *C 47.092 27.915
*N *11324:8 *C 39.248 27.788
*N *11324:9 *C 39.248 27.788
*N *11324:10 *C 39.188 27.728
*N *11324:11 *C 39.188 27.728
*N *11324:12 *C 47.092 27.728
*N *11324:13 *C 47.092 27.685
*N *11324:14 *C 47.092 25.948
*N *11324:15 *C 47.092 25.904
*N *11324:16 *C 48.460 25.904
*N *11324:17 *C 48.460 25.861
*N *11324:18 *C 48.460 24.231
*N *11324:19 *C 48.460 24.237

*CAP
0 *221:Q 0.01687172
1 *254:A1 0.01921671
2 *232:A1 0.001
3 *326:A 0.001
4 *11324:4 0.09999672
5 *11324:5 0.09772266
6 *11324:6 0.08573479
7 *11324:7 0.01197375
8 *11324:8 0.01299051
9 *11324:9 0.01983737
10 *11324:10 0.0105241
11 *11324:11 0.2858016
12 *11324:12 0.2812969
13 *11324:13 0.08856794
14 *11324:14 0.0773113
15 *11324:15 0.05218016
16 *11324:16 0.134393
17 *11324:17 0.07109628
18 *11324:18 0.07198673
19 *11324:19 0.01064553

*RES
0 *221:Q *11324:19 0.1308333
1 *11324:7 *232:A1 0.5
2 *11324:14 *11324:13 3.101786
3 *11324:15 *11324:14 0.25
4 *11324:5 *11324:4 3.208929
5 *11324:6 *11324:5 0.25
6 *11324:4 *326:A 0.5
7 *11324:13 *11324:12 0.25
8 *11324:13 *11324:7 0.2641667
9 *11324:12 *11324:11 14.11429
10 *11324:10 *11324:9 0.1
11 *11324:11 *11324:10 0.25
12 *11324:8 *254:A1 0.1916667
13 *11324:9 *11324:8 0.5
14 *11324:17 *11324:16 0.25
15 *11324:16 *11324:15 2.442857
16 *11324:16 *11324:6 4.071429
17 *11324:19 *11324:18 0.5
18 *11324:18 *11324:17 2.909822

*END

*D_NET *11325 0.470125 //LENGTH 5.098 DR

*CONN
*I *233:Q O *L 0.000 *C 49.402 46.230
*I *323:A I *L 0.564 *C 46.788 44.508
*N *11325:2 *C 46.788 44.552
*N *11325:3 *C 46.788 45.621
*N *11325:4 *C 46.788 45.664
*N *11325:5 *C 49.372 45.664
*N *11325:6 *C 49.372 45.708
*N *11325:7 *C 49.372 46.229
*N *11325:8 *C 49.372 46.272

*CAP
0 *233:Q 0.01664565
1 *323:A 0.001
2 *11325:2 0.07952695
3 *11325:3 0.07725289
4 *11325:4 0.1101495
5 *11325:5 0.1134619
6 *11325:6 0.03038908
7 *11325:7 0.03127954
8 *11325:8 0.01041946

*RES
0 *233:Q *11325:8 0.08181819
1 *11325:2 *323:A 0.5
2 *11325:3 *11325:2 1.908929
3 *11325:4 *11325:3 0.25
4 *11325:6 *11325:5 0.25
5 *11325:5 *11325:4 4.614286
6 *11325:8 *11325:7 0.5
7 *11325:7 *11325:6 0.9303572

*END

*D_NET *11326 2.128476 //LENGTH 22.676 DR

*CONN
*I *235:Q O *L 0.000 *C 43.626 24.400
*I *231:A I *L 0.424 *C 42.440 21.155
*I *109:A3 I *L 0.603 *C 34.568 30.828
*I *230:A I *L 0.424 *C 44.660 31.120
*N *11326:4 *C 44.660 30.950
*N *11326:5 *C 44.660 31.072
*N *11326:6 *C 44.660 31.072
*N *11326:7 *C 44.660 31.072
*N *11326:8 *C 34.568 30.828
*N *11326:9 *C 34.628 31.333
*N *11326:10 *C 34.628 31.376
*N *11326:11 *C 43.596 31.436
*N *11326:12 *C 43.596 31.132
*N *11326:13 *C 43.596 31.029
*N *11326:14 *C 43.596 24.231
*N *11326:15 *C 43.596 24.237
*N *11326:16 *C 42.440 21.155
*N *11326:17 *C 42.380 23.684
*N *11326:18 *C 43.292 23.744

*CAP
0 *235:Q 0.007529125
1 *231:A 0.001
2 *109:A3 0.001
3 *230:A 0.01672641
4 *11326:4 0.01108079
5 *11326:5 0.01050021
6 *11326:6 0.004465195
7 *11326:7 0.05953787
8 *11326:8 0.04351947
9 *11326:9 0.03196239
10 *11326:10 0.3708218
11 *11326:11 0.3816641
12 *11326:12 0.06212767
13 *11326:13 0.4109273
14 *11326:14 0.4118177
15 *11326:15 0.007730357
16 *11326:16 0.1094299
17 *11326:17 0.1437923
18 *11326:18 0.04284339

*RES
0 *235:Q *11326:18 0.5
1 *235:Q *11326:15 0.1308334
2 *11326:16 *231:A 0.5
3 *11326:18 *11326:17 1.628572
4 *11326:9 *11326:8 0.900893
5 *11326:10 *11326:9 0.25
6 *11326:8 *109:A3 0.5
7 *11326:6 *11326:5 0.5
8 *11326:6 *11326:4 0.2033333
9 *11326:7 *11326:6 0.25
10 *11326:5 *230:A 0.08181819
11 *11326:13 *11326:12 0.25
12 *11326:12 *11326:11 0.5428572
13 *11326:12 *11326:7 1.9
14 *11326:15 *11326:14 0.5
15 *11326:14 *11326:13 12.13839
16 *11326:17 *11326:16 4.516072
17 *11326:11 *11326:10 16.01429

*END

*D_NET *11327 0.5461028 //LENGTH 5.625 DR

*CONN
*I *42:Y O *L 0.000 *C 43.748 51.323
*I *205:A4 I *L 0.574 *C 41.620 51.224
*I *207:A4 I *L 0.574 *C 43.444 52.756
*N *11327:3 *C 43.444 52.776
*N *11327:4 *C 43.444 52.745
*N *11327:5 *C 41.680 51.196
*N *11327:6 *C 41.680 51.196
*N *11327:7 *C 41.620 51.821
*N *11327:8 *C 41.620 51.864
*N *11327:9 *C 43.444 51.744
*N *11327:10 *C 43.444 51.804
*N *11327:11 *C 43.748 51.804
*N *11327:12 *C 43.688 51.323
*N *11327:13 *C 43.688 51.323

*CAP
0 *42:Y 0.01515582
1 *205:A4 0.01441443
2 *207:A4 0.01425085
3 *11327:3 0.008024659
4 *11327:4 0.07252415
5 *11327:5 0.008188236
6 *11327:6 0.04762803
7 *11327:7 0.03309272
8 *11327:8 0.07490218
9 *11327:9 0.07624163
10 *11327:10 0.08783938
11 *11327:11 0.0456764
12 *11327:12 0.03923466
13 *11327:13 0.008929622

*RES
0 *42:Y *11327:13 0.1916667
1 *11327:10 *11327:9 0.25
2 *11327:10 *11327:4 1.778572
3 *11327:9 *11327:8 3.292857
4 *11327:7 *11327:6 1.115179
5 *11327:8 *11327:7 0.25
6 *11327:5 *205:A4 0.1916667
7 *11327:6 *11327:5 0.5
8 *11327:3 *207:A4 0.2316667
9 *11327:4 *11327:3 0.5
10 *11327:13 *11327:12 0.5
11 *11327:12 *11327:11 0.8589286
12 *11327:11 *11327:10 0.5428572

*END

*D_NET *11328 2.94442 //LENGTH 31.440 DR

*CONN
*I *161:Q O *L 0.000 *C 34.506 46.230
*I *180:A2 I *L 0.492 *C 33.305 44.521
*I *179:A4 I *L 0.574 *C 32.348 41.192
*I *138:A1 I *L 0.541 *C 35.221 42.684
*I *227:A2 I *L 0.583 *C 41.620 49.400
*I *42:A I *L 0.588 *C 44.052 51.196
*I *223:A2 I *L 0.542 *C 41.958 42.724
*I *296:A I *L 0.564 *C 35.084 46.028
*N *11328:8 *C 34.476 46.150
*N *11328:9 *C 35.084 45.968
*N *11328:10 *C 35.084 45.968
*N *11328:11 *C 42.076 42.744
*N *11328:12 *C 42.076 42.744
*N *11328:13 *C 42.076 42.624
*N *11328:14 *C 42.076 42.624
*N *11328:15 *C 44.052 51.153
*N *11328:16 *C 44.052 49.356
*N *11328:17 *C 44.052 49.312
*N *11328:18 *C 41.620 49.312
*N *11328:19 *C 41.620 49.312
*N *11328:20 *C 41.712 49.372
*N *11328:21 *C 41.756 49.372
*N *11328:22 *C 41.712 49.372
*N *11328:23 *C 41.712 42.684
*N *11328:24 *C 41.712 42.684
*N *11328:25 *C 35.307 42.624
*N *11328:26 *C 35.307 42.624
*N *11328:27 *C 34.733 42.684
*N *11328:28 *C 34.688 42.684
*N *11328:29 *C 32.408 41.164
*N *11328:30 *C 32.408 41.164
*N *11328:31 *C 32.348 43.493
*N *11328:32 *C 32.348 43.536
*N *11328:33 *C 33.260 44.568
*N *11328:34 *C 33.260 44.525
*N *11328:35 *C 33.260 43.580
*N *11328:36 *C 33.260 43.536
*N *11328:37 *C 34.628 43.536
*N *11328:38 *C 34.628 43.536
*N *11328:39 *C 34.628 45.925
*N *11328:40 *C 34.628 46.028
*N *11328:41 *C 34.628 46.332
*N *11328:42 *C 34.476 46.272
*N *11328:43 *C 34.476 46.272
*N *11328:44 *C 34.476 46.272

*CAP
0 *161:Q 0.01605733
1 *180:A2 0.01688277
2 *179:A4 0.01496146
3 *138:A1 0.02519873
4 *227:A2 0.01288645
5 *42:A 0.001
6 *223:A2 0.0120965
7 *296:A 0.001
8 *11328:8 0.01383518
9 *11328:9 0.001
10 *11328:10 0.03255461
11 *11328:11 0.02226145
12 *11328:12 0.01836149
13 *11328:13 0.01746431
14 *11328:14 0.01778392
15 *11328:15 0.09004222
16 *11328:16 0.08759521
17 *11328:17 0.1134555
18 *11328:18 0.00666025
19 *11328:19 0.01257348
20 *11328:20 0.02083816
21 *11328:21 0.09349556
22 *11328:22 0.2706751
23 *11328:23 0.2685965
24 *11328:24 0.3007073
25 *11328:25 0.2889878
26 *11328:26 0.001
27 *11328:27 0.02425966
28 *11328:28 0.06263597
29 *11328:29 0.008735267
30 *11328:30 0.1369985
31 *11328:31 0.1215823
32 *11328:32 0.04224824
33 *11328:33 0.01065657
34 *11328:34 0.09445492
35 *11328:35 0.09356447
36 *11328:36 0.09662128
37 *11328:37 0.05772329
38 *11328:38 0.185755
39 *11328:39 0.1272123
40 *11328:40 0.03955496
41 *11328:41 0.0312749
42 *11328:42 0.01510408
43 *11328:43 0.008235807
44 *11328:44 0.009831134

*RES
0 *161:Q *11328:44 0.08181819
1 *138:A1 *11328:26 0.5
2 *11328:16 *11328:15 3.29375
3 *11328:17 *11328:16 0.25
4 *11328:15 *42:A 0.5
5 *11328:27 *138:A1 0.9760001
6 *11328:28 *11328:27 0.5
7 *11328:38 *11328:37 0.25
8 *11328:38 *11328:28 1.521429
9 *11328:37 *11328:36 2.442857
10 *11328:9 *296:A 0.5
11 *11328:10 *11328:9 0.25
12 *11328:39 *11328:38 4.265179
13 *11328:40 *11328:39 0.25
14 *11328:40 *11328:10 0.8142858
15 *11328:21 *11328:20 0.25
16 *11328:21 *11328:17 4.378572
17 *11328:22 *11328:21 0.25
18 *11328:24 *11328:23 0.25
19 *11328:24 *11328:14 0.65
20 *11328:23 *11328:22 11.94286
21 *11328:26 *11328:25 0.25
22 *11328:25 *11328:24 11.4375
23 *11328:43 *11328:42 0.25
24 *11328:43 *11328:8 0.2033333
25 *11328:42 *11328:41 0.2714286
26 *11328:44 *11328:43 0.5
27 *11328:31 *11328:30 4.158036
28 *11328:32 *11328:31 0.25
29 *11328:29 *179:A4 0.1916667
30 *11328:30 *11328:29 0.5
31 *11328:35 *11328:34 1.6875
32 *11328:36 *11328:35 0.25
33 *11328:36 *11328:32 1.628572
34 *11328:33 *180:A2 0.08181819
35 *11328:34 *11328:33 0.5
36 *11328:20 *11328:19 0.1
37 *11328:18 *227:A2 0.08181819
38 *11328:19 *11328:18 0.5
39 *11328:13 *11328:12 0.1916667
40 *11328:14 *11328:13 0.25
41 *11328:11 *223:A2 0.1388235
42 *11328:12 *11328:11 0.5
43 *11328:41 *11328:40 0.5428572

*END

*D_NET *11329 4.250284 //LENGTH 43.539 DR

*CONN
*I *160:Q O *L 0.000 *C 29.946 46.230
*I *179:A3 I *L 0.590 *C 32.228 40.972
*I *222:A3 I *L 0.460 *C 39.036 43.016
*I *138:A2 I *L 0.593 *C 35.540 42.871
*I *275:A2 I *L 0.589 *C 33.511 49.076
*I *217:A I *L 0.564 *C 35.996 49.372
*I *207:A1 I *L 0.671 *C 43.900 52.868
*I *183:A2 I *L 0.512 *C 27.636 40.848
*N *11329:8 *C 27.636 40.678
*N *11329:9 *C 27.636 40.800
*N *11329:10 *C 27.636 40.800
*N *11329:11 *C 27.636 40.800
*N *11329:12 *C 29.916 40.800
*N *11329:13 *C 29.916 40.844
*N *11329:14 *C 43.900 52.856
*N *11329:15 *C 43.900 52.699
*N *11329:16 *C 43.900 52.656
*N *11329:17 *C 39.900 52.720
*N *11329:18 *C 39.856 52.726
*N *11329:19 *C 39.796 49.052
*N *11329:20 *C 39.796 49.008
*N *11329:21 *C 35.996 49.329
*N *11329:22 *C 35.996 49.052
*N *11329:23 *C 35.996 49.008
*N *11329:24 *C 33.511 49.066
*N *11329:25 *C 33.564 49.056
*N *11329:26 *C 33.564 49.056
*N *11329:27 *C 33.564 49.128
*N *11329:28 *C 35.540 49.008
*N *11329:29 *C 35.540 48.965
*N *11329:30 *C 35.540 42.871
*N *11329:31 *C 39.036 42.928
*N *11329:32 *C 39.036 42.885
*N *11329:33 *C 39.036 42.364
*N *11329:34 *C 39.036 42.320
*N *11329:35 *C 35.540 42.320
*N *11329:36 *C 35.540 42.320
*N *11329:37 *C 35.540 41.876
*N *11329:38 *C 35.540 41.832
*N *11329:39 *C 32.320 40.956
*N *11329:40 *C 32.258 40.983
*N *11329:41 *C 32.196 40.983
*N *11329:42 *C 32.196 41.669
*N *11329:43 *C 32.196 41.712
*N *11329:44 *C 29.916 41.832
*N *11329:45 *C 29.916 41.832
*N *11329:46 *C 29.916 46.229
*N *11329:47 *C 29.916 46.272

*CAP
0 *160:Q 0.02001547
1 *179:A3 0.01807396
2 *222:A3 0.01587319
3 *138:A2 0.001
4 *275:A2 0.009156792
5 *217:A 0.001
6 *207:A1 0.001
7 *183:A2 0.01717233
8 *11329:8 0.012229
9 *11329:9 0.01094614
10 *11329:10 0.005751399
11 *11329:11 0.1052625
12 *11329:12 0.1053044
13 *11329:13 0.05506035
14 *11329:14 0.01924093
15 *11329:15 0.01592917
16 *11329:16 0.178414
17 *11329:17 0.168109
18 *11329:18 0.2670205
19 *11329:19 0.2472851
20 *11329:20 0.1664335
21 *11329:21 0.03106135
22 *11329:22 0.0287873
23 *11329:23 0.1853822
24 *11329:24 0.007081395
25 *11329:25 0.01788779
26 *11329:26 0.01284653
27 *11329:27 0.08071596
28 *11329:28 0.1002147
29 *11329:29 0.2730506
30 *11329:30 0.320045
31 *11329:31 0.00964699
32 *11329:32 0.03325497
33 *11329:33 0.03236451
34 *11329:34 0.1580226
35 *11329:35 0.1576743
36 *11329:36 0.07993624
37 *11329:37 0.03385262
38 *11329:38 0.1452355
39 *11329:39 0.01184777
40 *11329:40 0.004641373
41 *11329:41 0.0637371
42 *11329:42 0.04575288
43 *11329:43 0.2409966
44 *11329:44 0.1061461
45 *11329:45 0.3424952
46 *11329:46 0.2735391
47 *11329:47 0.01378927

*RES
0 *160:Q *11329:47 0.08181818
1 *11329:30 *138:A2 0.5
2 *11329:30 *11329:29 10.88125
3 *11329:42 *11329:41 1.224107
4 *11329:43 *11329:42 0.25
5 *11329:43 *11329:38 5.971429
6 *11329:39 *179:A3 0.1916667
7 *11329:40 *11329:39 0.5
8 *11329:45 *11329:44 0.25
9 *11329:45 *11329:13 1.765179
10 *11329:44 *11329:43 4.071429
11 *11329:29 *11329:28 0.25
12 *11329:28 *11329:27 3.528572
13 *11329:28 *11329:23 0.8142858
14 *11329:37 *11329:36 0.79375
15 *11329:38 *11329:37 0.25
16 *11329:24 *275:A2 0.1516667
17 *11329:25 *11329:24 1
18 *11329:26 *11329:25 0.01
19 *11329:27 *11329:26 0.25
20 *11329:22 *11329:21 0.4946429
21 *11329:23 *11329:22 0.25
22 *11329:23 *11329:20 6.785715
23 *11329:21 *217:A 0.5
24 *11329:36 *11329:35 0.25
25 *11329:36 *11329:30 0.9839286
26 *11329:35 *11329:34 6.242857
27 *11329:33 *11329:32 0.9303572
28 *11329:34 *11329:33 0.25
29 *11329:31 *222:A3 0.08181819
30 *11329:32 *11329:31 0.5
31 *11329:19 *11329:18 6.561607
32 *11329:20 *11329:19 0.25
33 *11329:18 *11329:17 0.25
34 *11329:17 *11329:16 7.14375
35 *11329:15 *11329:14 0.2616667
36 *11329:16 *11329:15 0.25
37 *11329:14 *207:A1 1
38 *11329:47 *11329:46 0.5
39 *11329:46 *11329:45 7.850893
40 *11329:13 *11329:12 0.25
41 *11329:12 *11329:11 4.071429
42 *11329:10 *11329:9 0.5
43 *11329:10 *11329:8 0.2033333
44 *11329:11 *11329:10 0.25
45 *11329:9 *183:A2 0.08181817
46 *11329:41 *11329:40 0.1107143

*END

*D_NET *11330 2.969782 //LENGTH 35.412 DR

*CONN
*I *159:Q O *L 0.000 *C 24.778 44.464
*I *295:A I *L 0.564 *C 25.356 44.508
*I *179:A2 I *L 0.583 *C 32.044 41.204
*I *138:A3 I *L 0.662 *C 35.692 42.567
*I *181:A3 I *L 0.460 *C 37.060 46.332
*I *237:A I *L 0.564 *C 38.276 54.540
*I *222:A1 I *L 0.533 *C 38.732 43.016
*I *305:A I *L 0.564 *C 24.444 42.684
*N *11330:8 *C 24.444 42.728
*N *11330:9 *C 24.444 42.988
*N *11330:10 *C 38.732 42.928
*N *11330:11 *C 38.732 42.928
*N *11330:12 *C 38.732 43.048
*N *11330:13 *C 38.732 43.048
*N *11330:14 *C 38.276 54.497
*N *11330:15 *C 38.276 46.636
*N *11330:16 *C 37.060 46.375
*N *11330:17 *C 37.060 46.534
*N *11330:18 *C 37.060 46.576
*N *11330:19 *C 38.124 46.576
*N *11330:20 *C 38.125 46.636
*N *11330:21 *C 38.124 42.972
*N *11330:22 *C 38.124 42.928
*N *11330:23 *C 35.692 42.611
*N *11330:24 *C 35.692 42.885
*N *11330:25 *C 35.692 42.928
*N *11330:26 *C 32.044 41.224
*N *11330:27 *C 32.044 41.268
*N *11330:28 *C 32.044 42.885
*N *11330:29 *C 32.044 42.928
*N *11330:30 *C 24.596 42.928
*N *11330:31 *C 24.596 43.002
*N *11330:32 *C 24.596 43.900
*N *11330:33 *C 25.356 44.465
*N *11330:34 *C 25.356 43.884
*N *11330:35 *C 25.356 43.840
*N *11330:36 *C 24.748 43.840
*N *11330:37 *C 24.748 43.914
*N *11330:38 *C 24.748 44.233
*N *11330:39 *C 24.748 44.301

*CAP
0 *159:Q 0.01843916
1 *295:A 0.001
2 *179:A2 0.01595424
3 *138:A3 0.001
4 *181:A3 0.001
5 *237:A 0.001
6 *222:A1 0.01580965
7 *305:A 0.001
8 *11330:8 0.0165785
9 *11330:9 0.0305054
10 *11330:10 0.009583451
11 *11330:11 0.01214494
12 *11330:12 0.0105367
13 *11330:13 0.03236657
14 *11330:14 0.3074301
15 *11330:15 0.3201409
16 *11330:16 0.024266
17 *11330:17 0.02095425
18 *11330:18 0.04517454
19 *11330:19 0.04517454
20 *11330:20 0.1569635
21 *11330:21 0.1490953
22 *11330:22 0.1356275
23 *11330:23 0.03024153
24 *11330:24 0.02921271
25 *11330:25 0.2469567
26 *11330:26 0.009728046
27 *11330:27 0.09132614
28 *11330:28 0.09043568
29 *11330:29 0.4363942
30 *11330:30 0.3005447
31 *11330:31 0.06024844
32 *11330:32 0.06794128
33 *11330:33 0.05039479
34 *11330:34 0.04812073
35 *11330:35 0.03600065
36 *11330:36 0.03600065
37 *11330:37 0.03052354
38 *11330:38 0.02175351
39 *11330:39 0.01221297

*RES
0 *159:Q *11330:39 0.1308333
1 *11330:24 *11330:23 0.4892857
2 *11330:25 *11330:24 0.25
3 *11330:25 *11330:22 4.342857
4 *11330:23 *138:A3 0.5
5 *11330:31 *11330:30 0.25
6 *11330:31 *11330:9 0.2714286
7 *11330:30 *11330:29 13.3
8 *11330:39 *11330:38 0.5
9 *11330:38 *11330:37 0.5705357
10 *11330:8 *305:A 0.5
11 *11330:21 *11330:20 6.54375
12 *11330:22 *11330:21 0.25
13 *11330:22 *11330:13 1.085714
14 *11330:14 *237:A 0.5
15 *11330:37 *11330:36 0.25
16 *11330:37 *11330:32 0.2714286
17 *11330:36 *11330:35 1.085714
18 *11330:34 *11330:33 1.0375
19 *11330:35 *11330:34 0.25
20 *11330:33 *295:A 0.5
21 *11330:12 *11330:11 0.1916667
22 *11330:13 *11330:12 0.25
23 *11330:10 *222:A1 0.08181818
24 *11330:11 *11330:10 0.5
25 *11330:20 *11330:19 0.25
26 *11330:20 *11330:15 0.2696429
27 *11330:19 *11330:18 1.9
28 *11330:17 *11330:16 0.265
29 *11330:18 *11330:17 0.25
30 *11330:16 *181:A3 0.5
31 *11330:28 *11330:27 2.8875
32 *11330:29 *11330:28 0.25
33 *11330:29 *11330:25 6.514286
34 *11330:26 *179:A2 0.08181819
35 *11330:27 *11330:26 0.5
36 *11330:9 *11330:8 0.4651786
37 *11330:32 *11330:31 1.604464
38 *11330:15 *11330:14 14.03661

*END

*D_NET *11331 4.07241 //LENGTH 43.716 DR

*CONN
*I *165:Q O *L 0.000 *C 33.442 26.166
*I *320:A I *L 0.564 *C 31.740 29.308
*I *139:A1 I *L 0.603 *C 34.172 32.839
*I *153:A I *L 0.588 *C 33.260 39.340
*I *220:A3 I *L 0.591 *C 29.017 49.068
*I *117:A2 I *L 0.593 *C 34.720 40.987
*I *127:A1 I *L 0.552 *C 38.289 22.964
*N *11331:7 *C 33.412 26.086
*N *11331:8 *C 38.336 22.924
*N *11331:9 *C 38.336 22.924
*N *11331:10 *C 38.276 25.557
*N *11331:11 *C 38.276 25.600
*N *11331:12 *C 34.020 25.600
*N *11331:13 *C 34.020 25.644
*N *11331:14 *C 34.720 40.987
*N *11331:15 *C 34.780 40.236
*N *11331:16 *C 34.780 40.192
*N *11331:17 *C 33.716 40.192
*N *11331:18 *C 33.716 40.149
*N *11331:19 *C 29.064 49.068
*N *11331:20 *C 29.064 49.068
*N *11331:21 *C 29.004 49.008
*N *11331:22 *C 29.004 49.008
*N *11331:23 *C 33.108 49.008
*N *11331:24 *C 33.108 48.965
*N *11331:25 *C 33.108 39.340
*N *11331:26 *C 33.260 39.280
*N *11331:27 *C 33.260 39.280
*N *11331:28 *C 33.716 39.280
*N *11331:29 *C 33.716 39.280
*N *11331:30 *C 34.172 32.839
*N *11331:31 *C 34.172 32.896
*N *11331:32 *C 33.716 32.896
*N *11331:33 *C 33.716 32.896
*N *11331:34 *C 31.740 29.248
*N *11331:35 *C 31.740 29.248
*N *11331:36 *C 33.716 29.248
*N *11331:37 *C 33.716 29.248
*N *11331:38 *C 33.716 26.268
*N *11331:39 *C 34.020 26.165
*N *11331:40 *C 34.020 26.208
*N *11331:41 *C 33.412 26.208
*N *11331:42 *C 33.412 26.208
*N *11331:43 *C 33.412 26.208

*CAP
0 *165:Q 0.01757591
1 *320:A 0.001
2 *139:A1 0.001
3 *153:A 0.001
4 *220:A3 0.0164857
5 *117:A2 0.001
6 *127:A1 0.01365027
7 *11331:7 0.01052922
8 *11331:8 0.007424077
9 *11331:9 0.1261259
10 *11331:10 0.1187544
11 *11331:11 0.2048582
12 *11331:12 0.2088852
13 *11331:13 0.03131542
14 *11331:14 0.06579034
15 *11331:15 0.04750035
16 *11331:16 0.05642365
17 *11331:17 0.05642365
18 *11331:18 0.03714131
19 *11331:19 0.01025951
20 *11331:20 0.0140305
21 *11331:21 0.01064284
22 *11331:22 0.1869471
23 *11331:23 0.1861959
24 *11331:24 0.5199518
25 *11331:25 0.5361792
26 *11331:26 0.003439223
27 *11331:27 0.02516935
28 *11331:28 0.02651862
29 *11331:29 0.3190783
30 *11331:30 0.001
31 *11331:31 0.02584661
32 *11331:32 0.02458143
33 *11331:33 0.4443761
34 *11331:34 0.001
35 *11331:35 0.07327301
36 *11331:36 0.0729415
37 *11331:37 0.2931731
38 *11331:38 0.1396013
39 *11331:39 0.04574955
40 *11331:40 0.03685658
41 *11331:41 0.03707191
42 *11331:42 0.004293288
43 *11331:43 0.01134972

*RES
0 *165:Q *11331:43 0.08181819
1 *11331:26 *153:A 0.5
2 *11331:26 *11331:25 0.2714286
3 *11331:33 *11331:32 0.25
4 *11331:33 *11331:29 11.4
5 *11331:32 *11331:31 0.8142858
6 *11331:30 *139:A1 0.5
7 *11331:31 *11331:30 0.25
8 *11331:13 *11331:12 0.25
9 *11331:12 *11331:11 7.6
10 *11331:10 *11331:9 4.778572
11 *11331:11 *11331:10 0.25
12 *11331:8 *127:A1 0.14
13 *11331:9 *11331:8 0.5
14 *11331:37 *11331:36 0.25
15 *11331:37 *11331:33 6.514286
16 *11331:36 *11331:35 3.528572
17 *11331:34 *320:A 0.5
18 *11331:35 *11331:34 0.25
19 *11331:27 *11331:26 0.25
20 *11331:29 *11331:28 0.25
21 *11331:29 *11331:18 1.550893
22 *11331:28 *11331:27 0.8142858
23 *11331:39 *11331:38 0.5428572
24 *11331:39 *11331:13 1.008036
25 *11331:40 *11331:39 0.25
26 *11331:42 *11331:41 0.25
27 *11331:42 *11331:7 0.2033333
28 *11331:41 *11331:40 1.085714
29 *11331:43 *11331:42 0.5
30 *11331:24 *11331:23 0.25
31 *11331:23 *11331:22 7.328572
32 *11331:21 *11331:20 0.1
33 *11331:22 *11331:21 0.25
34 *11331:19 *220:A3 0.08181819
35 *11331:20 *11331:19 0.5
36 *11331:18 *11331:17 0.25
37 *11331:17 *11331:16 1.9
38 *11331:15 *11331:14 1.341964
39 *11331:16 *11331:15 0.25
40 *11331:14 *117:A2 0.5
41 *11331:25 *11331:24 17.18661
42 *11331:38 *11331:37 5.321429

*END

*D_NET *11332 2.846328 //LENGTH 33.385 DR

*CONN
*I *164:Q O *L 0.000 *C 26.754 29.510
*I *196:A2 I *L 0.467 *C 29.754 31.172
*I *324:A I *L 0.564 *C 28.700 35.996
*I *220:A4 I *L 0.641 *C 29.156 49.372
*I *263:A1 I *L 0.603 *C 30.074 54.359
*I *103:A I *L 0.588 *C 29.916 35.996
*N *11332:6 *C 26.724 29.430
*N *11332:7 *C 29.916 35.936
*N *11332:8 *C 29.916 35.936
*N *11332:9 *C 28.852 36.056
*N *11332:10 *C 28.852 36.056
*N *11332:11 *C 30.074 54.359
*N *11332:12 *C 29.916 54.328
*N *11332:13 *C 29.916 54.328
*N *11332:14 *C 29.856 54.388
*N *11332:15 *C 29.856 54.388
*N *11332:16 *C 29.856 49.980
*N *11332:17 *C 29.813 49.980
*N *11332:18 *C 29.156 49.343
*N *11332:19 *C 29.156 49.343
*N *11332:20 *C 29.156 49.877
*N *11332:21 *C 29.156 49.920
*N *11332:22 *C 28.700 50.040
*N *11332:23 *C 28.700 49.997
*N *11332:24 *C 28.700 35.996
*N *11332:25 *C 29.704 31.132
*N *11332:26 *C 29.704 31.132
*N *11332:27 *C 29.764 31.192
*N *11332:28 *C 29.764 31.192
*N *11332:29 *C 28.700 31.072
*N *11332:30 *C 28.700 31.072
*N *11332:31 *C 28.700 29.596
*N *11332:32 *C 28.700 29.552
*N *11332:33 *C 26.724 29.552
*N *11332:34 *C 26.724 29.552
*N *11332:35 *C 26.724 29.552

*CAP
0 *164:Q 0.01824503
1 *196:A2 0.01386982
2 *324:A 0.001
3 *220:A4 0.01335351
4 *263:A1 0.001
5 *103:A 0.001
6 *11332:6 0.01266096
7 *11332:7 0.001
8 *11332:8 0.04947101
9 *11332:9 0.04934136
10 *11332:10 0.009241696
11 *11332:11 0.01095563
12 *11332:12 0.007642228
13 *11332:13 0.01579757
14 *11332:14 0.009661671
15 *11332:15 0.1768086
16 *11332:16 0.1765722
17 *11332:17 0.02559582
18 *11332:18 0.007127314
19 *11332:19 0.03702202
20 *11332:20 0.03613156
21 *11332:21 0.05763312
22 *11332:22 0.02209728
23 *11332:23 0.6212188
24 *11332:24 0.8328171
25 *11332:25 0.007643625
26 *11332:26 0.01294349
27 *11332:27 0.01394662
28 *11332:28 0.04295981
29 *11332:29 0.04700106
30 *11332:30 0.2624189
31 *11332:31 0.05610327
32 *11332:32 0.08634908
33 *11332:33 0.09128321
34 *11332:34 0.006395859
35 *11332:35 0.01201884

*RES
0 *164:Q *11332:35 0.08181819
1 *11332:24 *324:A 0.5
2 *11332:24 *11332:23 25.00089
3 *11332:24 *11332:10 0.2714286
4 *11332:17 *11332:16 0.25
5 *11332:16 *11332:15 7.892858
6 *11332:14 *11332:13 0.1
7 *11332:15 *11332:14 0.25
8 *11332:12 *11332:11 0.2821429
9 *11332:13 *11332:12 0.25
10 *11332:11 *263:A1 0.5
11 *11332:23 *11332:22 0.25
12 *11332:22 *11332:21 0.8142858
13 *11332:31 *11332:30 2.636607
14 *11332:32 *11332:31 0.25
15 *11332:34 *11332:33 0.25
16 *11332:34 *11332:6 0.2033333
17 *11332:33 *11332:32 3.528572
18 *11332:35 *11332:34 0.5
19 *11332:10 *11332:9 0.25
20 *11332:9 *11332:8 1.992857
21 *11332:7 *103:A 0.5
22 *11332:8 *11332:7 0.25
23 *11332:20 *11332:19 0.9526786
24 *11332:21 *11332:20 0.25
25 *11332:21 *11332:17 1.172322
26 *11332:18 *220:A4 0.04497042
27 *11332:19 *11332:18 0.5
28 *11332:30 *11332:29 0.25
29 *11332:30 *11332:24 8.792857
30 *11332:29 *11332:28 1.9
31 *11332:27 *11332:26 0.1
32 *11332:28 *11332:27 0.25
33 *11332:25 *196:A2 0.08181819
34 *11332:26 *11332:25 0.5

*END

*D_NET *11333 0.3621667 //LENGTH 3.394 DR

*CONN
*I *163:Q O *L 0.000 *C 25.842 34.275
*I *301:A I *L 0.564 *C 24.748 32.652
*N *11333:2 *C 24.748 32.696
*N *11333:3 *C 24.748 33.461
*N *11333:4 *C 24.748 33.504
*N *11333:5 *C 25.812 33.504
*N *11333:6 *C 25.812 33.548
*N *11333:7 *C 25.812 34.189
*N *11333:8 *C 25.812 34.232

*CAP
0 *163:Q 0.01732202
1 *301:A 0.001
2 *11333:2 0.07782166
3 *11333:3 0.07554759
4 *11333:4 0.04924612
5 *11333:5 0.04789569
6 *11333:6 0.04067369
7 *11333:7 0.04156415
8 *11333:8 0.01109583

*RES
0 *163:Q *11333:8 0.08181819
1 *11333:2 *301:A 0.5
2 *11333:3 *11333:2 1.615179
3 *11333:4 *11333:3 0.25
4 *11333:6 *11333:5 0.25
5 *11333:5 *11333:4 1.9
6 *11333:8 *11333:7 0.5
7 *11333:7 *11333:6 1.144643

*END

*D_NET *11334 3.045492 //LENGTH 33.192 DR

*CONN
*I *162:Q O *L 0.000 *C 25.082 37.619
*I *178:A2 I *L 0.542 *C 22.772 39.368
*I *175:A2 I *L 0.542 *C 27.636 36.024
*I *172:A1 I *L 0.548 *C 28.244 39.369
*I *126:A1 I *L 0.610 *C 30.904 37.736
*I *117:A3 I *L 0.662 *C 34.932 41.285
*I *137:A3 I *L 0.590 *C 36.180 34.284
*I *216:A I *L 0.564 *C 30.372 41.164
*N *11334:8 *C 30.372 41.121
*N *11334:9 *C 30.372 40.556
*N *11334:10 *C 36.272 34.268
*N *11334:11 *C 36.210 34.295
*N *11334:12 *C 36.148 34.295
*N *11334:13 *C 36.148 35.285
*N *11334:14 *C 36.148 35.328
*N *11334:15 *C 35.068 35.388
*N *11334:16 *C 35.024 35.388
*N *11334:17 *C 35.144 40.556
*N *11334:18 *C 35.102 40.556
*N *11334:19 *C 34.932 41.242
*N *11334:20 *C 34.932 40.660
*N *11334:21 *C 34.932 40.616
*N *11334:22 *C 30.828 40.496
*N *11334:23 *C 30.828 40.453
*N *11334:24 *C 30.816 37.693
*N *11334:25 *C 30.768 37.693
*N *11334:26 *C 30.828 38.672
*N *11334:27 *C 30.828 38.672
*N *11334:28 *C 28.244 39.280
*N *11334:29 *C 28.244 39.237
*N *11334:30 *C 28.244 38.716
*N *11334:31 *C 28.244 38.672
*N *11334:32 *C 27.636 38.672
*N *11334:33 *C 27.636 38.629
*N *11334:34 *C 27.636 35.936
*N *11334:35 *C 27.636 35.980
*N *11334:36 *C 27.636 37.456
*N *11334:37 *C 27.636 37.456
*N *11334:38 *C 22.772 39.280
*N *11334:39 *C 22.772 39.237
*N *11334:40 *C 22.772 37.500
*N *11334:41 *C 22.772 37.456
*N *11334:42 *C 25.052 37.456
*N *11334:43 *C 25.052 37.456
*N *11334:44 *C 25.052 37.576
*N *11334:45 *C 25.052 37.576

*CAP
0 *162:Q 0.0183482
1 *178:A2 0.0140426
2 *175:A2 0.01502996
3 *172:A1 0.01648263
4 *126:A1 0.01316966
5 *117:A3 0.001
6 *137:A3 0.02213445
7 *216:A 0.001
8 *11334:8 0.02891098
9 *11334:9 0.05596266
10 *11334:10 0.01590825
11 *11334:11 0.004346474
12 *11334:12 0.08828191
13 *11334:13 0.07059259
14 *11334:14 0.06104311
15 *11334:15 0.04798432
16 *11334:16 0.2120401
17 *11334:17 0.2117143
18 *11334:18 0.008473043
19 *11334:19 0.04333711
20 *11334:20 0.04230829
21 *11334:21 0.1830153
22 *11334:22 0.1676725
23 *11334:23 0.1161635
24 *11334:24 0.006943464
25 *11334:25 0.06325939
26 *11334:26 0.1589963
27 *11334:27 0.1136083
28 *11334:28 0.01025644
29 *11334:29 0.03235375
30 *11334:30 0.03146328
31 *11334:31 0.1412335
32 *11334:32 0.03004309
33 *11334:33 0.06893533
34 *11334:34 0.008803763
35 *11334:35 0.08836856
36 *11334:36 0.1690862
37 *11334:37 0.09130992
38 *11334:38 0.007816409
39 *11334:39 0.1232905
40 *11334:40 0.1224
41 *11334:41 0.09162868
42 *11334:42 0.1795607
43 *11334:43 0.01680755
44 *11334:44 0.01824296
45 *11334:45 0.012122

*RES
0 *162:Q *11334:45 0.08181819
1 *11334:20 *11334:19 1.039286
2 *11334:21 *11334:20 0.25
3 *11334:21 *11334:18 0.4466667
4 *11334:19 *117:A3 0.5
5 *11334:34 *175:A2 0.08181819
6 *11334:35 *11334:34 0.5
7 *11334:36 *11334:35 2.636607
8 *11334:36 *11334:33 2.09375
9 *11334:37 *11334:36 0.25
10 *11334:23 *11334:22 0.25
11 *11334:23 *11334:9 0.8142857
12 *11334:22 *11334:21 7.328572
13 *11334:26 *11334:25 1.748214
14 *11334:26 *11334:23 3.179464
15 *11334:27 *11334:26 0.25
16 *11334:8 *216:A 0.5
17 *11334:40 *11334:39 3.101786
18 *11334:41 *11334:40 0.25
19 *11334:38 *178:A2 0.08181818
20 *11334:39 *11334:38 0.5
21 *11334:33 *11334:32 0.25
22 *11334:32 *11334:31 1.085714
23 *11334:24 *126:A1 0.03863636
24 *11334:25 *11334:24 0.5
25 *11334:43 *11334:42 0.25
26 *11334:42 *11334:41 4.071429
27 *11334:42 *11334:37 4.614286
28 *11334:45 *11334:44 0.5
29 *11334:44 *11334:43 0.1916667
30 *11334:18 *11334:17 0.25
31 *11334:17 *11334:16 9.228572
32 *11334:15 *11334:14 1.929464
33 *11334:16 *11334:15 0.25
34 *11334:13 *11334:12 1.766964
35 *11334:14 *11334:13 0.25
36 *11334:10 *137:A3 0.1916667
37 *11334:11 *11334:10 0.5
38 *11334:30 *11334:29 0.9303572
39 *11334:31 *11334:30 0.25
40 *11334:31 *11334:27 4.614286
41 *11334:28 *172:A1 0.08181819
42 *11334:29 *11334:28 0.5
43 *11334:9 *11334:8 1.008036
44 *11334:12 *11334:11 0.1107143

*END

*D_NET *11335 0.5488115 //LENGTH 5.718 DR

*CONN
*I *168:Q O *L 0.000 *C 36.330 22.822
*I *129:A3 I *L 0.522 *C 31.284 22.737
*N *11335:2 *C 36.300 22.742
*N *11335:3 *C 31.284 22.737
*N *11335:4 *C 31.284 22.864
*N *11335:5 *C 31.284 22.864
*N *11335:6 *C 36.300 22.864
*N *11335:7 *C 36.300 22.864
*N *11335:8 *C 36.300 22.864

*CAP
0 *168:Q 0.01632957
1 *129:A3 0.001
2 *11335:2 0.01016782
3 *11335:3 0.01328943
4 *11335:4 0.0105054
5 *11335:5 0.2419358
6 *11335:6 0.2416514
7 *11335:7 0.003828684
8 *11335:8 0.01010338

*RES
0 *168:Q *11335:8 0.08181819
1 *11335:8 *11335:7 0.5
2 *11335:7 *11335:6 0.25
3 *11335:7 *11335:2 0.2033333
4 *11335:6 *11335:5 8.957143
5 *11335:4 *11335:3 0.1916667
6 *11335:5 *11335:4 0.25
7 *11335:3 *129:A3 0.5

*END

*D_NET *11336 0.2084361 //LENGTH 2.422 DR

*CONN
*I *167:Q O *L 0.000 *C 29.490 22.792
*I *129:A1 I *L 0.617 *C 30.888 22.620
*N *11336:2 *C 29.485 22.864
*N *11336:3 *C 30.888 22.620
*N *11336:4 *C 30.828 22.560
*N *11336:5 *C 30.828 22.560
*N *11336:6 *C 29.485 22.560
*N *11336:7 *C 29.485 22.604
*N *11336:8 *C 29.485 22.833

*CAP
0 *167:Q 0.01002326
1 *129:A1 0.001
2 *11336:2 0.01667839
3 *11336:3 0.02264153
4 *11336:4 0.01453483
5 *11336:5 0.05833389
6 *11336:6 0.05757447
7 *11336:7 0.01359411
8 *11336:8 0.01405564

*RES
0 *167:Q *11336:8 0.5
1 *167:Q *11336:2 0.3333334
2 *11336:8 *11336:7 0.4098214
3 *11336:7 *11336:6 0.25
4 *11336:6 *11336:5 2.398214
5 *11336:4 *11336:3 0.1
6 *11336:5 *11336:4 0.25
7 *11336:3 *129:A1 0.5

*END

*D_NET *11337 1.579729 //LENGTH 18.021 DR

*CONN
*I *166:Q O *L 0.000 *C 27.362 26.166
*I *170:A2 I *L 0.467 *C 23.066 22.660
*I *191:A2 I *L 1.042 *C 19.672 24.444
*I *129:A2 I *L 0.558 *C 30.969 22.827
*N *11337:4 *C 30.898 22.857
*N *11337:5 *C 30.898 22.857
*N *11337:6 *C 30.980 24.341
*N *11337:7 *C 30.980 24.384
*N *11337:8 *C 19.672 24.444
*N *11337:9 *C 19.732 24.384
*N *11337:10 *C 19.732 24.384
*N *11337:11 *C 23.016 22.620
*N *11337:12 *C 23.016 22.620
*N *11337:13 *C 23.076 24.341
*N *11337:14 *C 23.076 24.384
*N *11337:15 *C 27.180 24.384
*N *11337:16 *C 27.180 24.428
*N *11337:17 *C 27.180 26.268
*N *11337:18 *C 27.332 26.208
*N *11337:19 *C 27.332 26.208

*CAP
0 *166:Q 0.01633399
1 *170:A2 0.01320295
2 *191:A2 0.001
3 *129:A2 0.02248973
4 *11337:4 0.01626354
5 *11337:5 0.08717169
6 *11337:6 0.07281031
7 *11337:7 0.1527186
8 *11337:8 0.009862475
9 *11337:9 0.008584303
10 *11337:10 0.1192355
11 *11337:11 0.006976755
12 *11337:12 0.1172391
13 *11337:13 0.1061219
14 *11337:14 0.2798102
15 *11337:15 0.3158743
16 *11337:16 0.1007699
17 *11337:17 0.1157587
18 *11337:18 0.007397288
19 *11337:19 0.0101078

*RES
0 *166:Q *11337:19 0.08181819
1 *11337:6 *11337:5 2.649107
2 *11337:7 *11337:6 0.25
3 *11337:4 *129:A2 0.1916666
4 *11337:5 *11337:4 0.5
5 *11337:16 *11337:15 0.25
6 *11337:15 *11337:14 7.328572
7 *11337:15 *11337:7 6.785715
8 *11337:19 *11337:18 0.5
9 *11337:18 *11337:17 0.2714286
10 *11337:9 *11337:8 0.1
11 *11337:10 *11337:9 0.25
12 *11337:8 *191:A2 0.5
13 *11337:13 *11337:12 3.072321
14 *11337:14 *11337:13 0.25
15 *11337:14 *11337:10 5.971429
16 *11337:11 *170:A2 0.08181817
17 *11337:12 *11337:11 0.5
18 *11337:17 *11337:16 3.286607

*END

*D_NET *11338 4.916989 //LENGTH 54.232 DR

*CONN
*I *104:Y O *L 0.000 *C 29.308 48.050
*I *270:A2 I *L 0.467 *C 25.822 51.236
*I *256:A1 I *L 0.617 *C 26.784 56.060
*I *265:A2 I *L 0.467 *C 34.466 59.444
*I *260:A2 I *L 0.558 *C 28.852 57.772
*I *132:A4 I *L 0.574 *C 38.184 34.476
*I *115:A1 I *L 0.548 *C 38.428 32.652
*I *121:A3 I *L 0.590 *C 34.928 37.651
*I *125:A4 I *L 0.543 *C 31.427 36.201
*N *11338:9 *C 31.376 36.148
*N *11338:10 *C 31.333 36.148
*N *11338:11 *C 31.132 36.148
*N *11338:12 *C 31.132 37.212
*N *11338:13 *C 34.864 37.629
*N *11338:14 *C 34.864 37.629
*N *11338:15 *C 38.428 32.696
*N *11338:16 *C 38.428 34.069
*N *11338:17 *C 38.428 34.112
*N *11338:18 *C 38.124 34.172
*N *11338:19 *C 38.184 34.476
*N *11338:20 *C 38.124 34.416
*N *11338:21 *C 38.124 34.416
*N *11338:22 *C 38.124 34.780
*N *11338:23 *C 34.932 34.720
*N *11338:24 *C 34.932 34.764
*N *11338:25 *C 34.932 37.152
*N *11338:26 *C 34.932 37.152
*N *11338:27 *C 31.284 37.272
*N *11338:28 *C 31.284 37.316
*N *11338:29 *C 31.284 48.357
*N *11338:30 *C 31.284 48.400
*N *11338:31 *C 28.852 57.707
*N *11338:32 *C 28.852 57.707
*N *11338:33 *C 34.416 59.404
*N *11338:34 *C 34.416 59.404
*N *11338:35 *C 34.476 57.564
*N *11338:36 *C 34.476 57.520
*N *11338:37 *C 28.852 57.520
*N *11338:38 *C 28.852 57.477
*N *11338:39 *C 28.852 56.044
*N *11338:40 *C 28.852 56.000
*N *11338:41 *C 26.784 56.060
*N *11338:42 *C 26.724 56.000
*N *11338:43 *C 26.724 56.000
*N *11338:44 *C 26.268 56.000
*N *11338:45 *C 26.268 55.957
*N *11338:46 *C 25.872 51.196
*N *11338:47 *C 25.872 51.196
*N *11338:48 *C 25.812 51.256
*N *11338:49 *C 25.812 51.256
*N *11338:50 *C 26.268 51.136
*N *11338:51 *C 26.268 51.136
*N *11338:52 *C 26.268 48.444
*N *11338:53 *C 26.268 48.400
*N *11338:54 *C 29.308 48.400
*N *11338:55 *C 29.308 48.357
*N *11338:56 *C 29.308 48.124
*N *11338:57 *C 29.308 48.080

*CAP
0 *104:Y 0.01790489
1 *270:A2 0.01257848
2 *256:A1 0.001
3 *265:A2 0.01363536
4 *260:A2 0.01552262
5 *132:A4 0.001
6 *115:A1 0.001
7 *121:A3 0.01877688
8 *125:A4 0.01636075
9 *11338:9 0.01013456
10 *11338:10 0.01059949
11 *11338:11 0.1006234
12 *11338:12 0.09308477
13 *11338:13 0.01255068
14 *11338:14 0.04497655
15 *11338:15 0.1138232
16 *11338:16 0.1105114
17 *11338:17 0.02122264
18 *11338:18 0.02602892
19 *11338:19 0.0203648
20 *11338:20 0.01153477
21 *11338:21 0.02882192
22 *11338:22 0.150191
23 *11338:23 0.1401476
24 *11338:24 0.1529548
25 *11338:25 0.1951067
26 *11338:26 0.1393373
27 *11338:27 0.1381906
28 *11338:28 0.5156574
29 *11338:29 0.5063703
30 *11338:30 0.09957575
31 *11338:31 0.009296422
32 *11338:32 0.01351927
33 *11338:33 0.007409166
34 *11338:34 0.08883712
35 *11338:35 0.08028489
36 *11338:36 0.217877
37 *11338:37 0.2203507
38 *11338:38 0.1006186
39 *11338:39 0.08796055
40 *11338:40 0.08382086
41 *11338:41 0.01697363
42 *11338:42 0.0106741
43 *11338:43 0.101569
44 *11338:44 0.02072956
45 *11338:45 0.190492
46 *11338:46 0.006352284
47 *11338:47 0.01204871
48 *11338:48 0.01240392
49 *11338:49 0.01687717
50 *11338:50 0.02065919
51 *11338:51 0.307932
52 *11338:52 0.1040428
53 *11338:53 0.1377307
54 *11338:54 0.2352791
55 *11338:55 0.0305469
56 *11338:56 0.03143736
57 *11338:57 0.01167869

*RES
0 *104:Y *11338:57 0.08181819
1 *11338:13 *121:A3 0.1916667
2 *11338:14 *11338:13 0.5
3 *11338:55 *11338:54 0.25
4 *11338:54 *11338:53 5.428572
5 *11338:54 *11338:30 3.528572
6 *11338:57 *11338:56 0.5
7 *11338:56 *11338:55 0.6366072
8 *11338:39 *11338:38 2.857143
9 *11338:40 *11338:39 0.25
10 *11338:45 *11338:44 0.25
11 *11338:44 *11338:43 0.8142858
12 *11338:16 *11338:15 2.451786
13 *11338:17 *11338:16 0.25
14 *11338:15 *115:A1 0.5
15 *11338:52 *11338:51 4.808036
16 *11338:53 *11338:52 0.25
17 *11338:29 *11338:28 19.71607
18 *11338:30 *11338:29 0.25
19 *11338:28 *11338:27 0.25
20 *11338:28 *11338:12 0.2714286
21 *11338:27 *11338:26 6.514286
22 *11338:25 *11338:24 4.265179
23 *11338:25 *11338:14 0.8517859
24 *11338:26 *11338:25 0.25
25 *11338:51 *11338:50 0.25
26 *11338:51 *11338:45 8.685715
27 *11338:50 *11338:49 0.8142858
28 *11338:48 *11338:47 0.1
29 *11338:49 *11338:48 0.25
30 *11338:46 *270:A2 0.08181819
31 *11338:47 *11338:46 0.5
32 *11338:38 *11338:37 0.25
33 *11338:38 *11338:32 0.2641667
34 *11338:37 *11338:36 10.13571
35 *11338:35 *11338:34 3.286607
36 *11338:36 *11338:35 0.25
37 *11338:33 *265:A2 0.08181819
38 *11338:34 *11338:33 0.5
39 *11338:42 *11338:41 0.09999999
40 *11338:43 *11338:42 0.25
41 *11338:43 *11338:40 3.8
42 *11338:41 *256:A1 0.5
43 *11338:31 *260:A2 0.08181819
44 *11338:32 *11338:31 0.5
45 *11338:20 *11338:19 0.1
46 *11338:21 *11338:20 0.25
47 *11338:21 *11338:18 0.4357143
48 *11338:19 *132:A4 0.5
49 *11338:9 *125:A4 0.08181819
50 *11338:10 *11338:9 0.5
51 *11338:24 *11338:23 0.25
52 *11338:23 *11338:22 5.700001
53 *11338:11 *11338:10 0.3580357
54 *11338:12 *11338:11 1.9
55 *11338:22 *11338:21 0.65
56 *11338:18 *11338:17 0.5428571

*END

*D_NET *11339 1.563214 //LENGTH 18.148 DR

*CONN
*I *155:Y O *L 0.000 *C 16.388 41.605
*I *187:A1 I *L 0.603 *C 19.428 46.215
*I *185:A4 I *L 0.575 *C 26.876 44.648
*N *11339:3 *C 26.876 44.600
*N *11339:4 *C 26.876 44.644
*N *11339:5 *C 26.876 46.229
*N *11339:6 *C 26.876 46.272
*N *11339:7 *C 19.428 46.215
*N *11339:8 *C 19.428 46.272
*N *11339:9 *C 16.236 46.272
*N *11339:10 *C 16.236 46.229
*N *11339:11 *C 16.236 43.444
*N *11339:12 *C 16.388 43.444
*N *11339:13 *C 16.448 41.620
*N *11339:14 *C 16.448 41.620

*CAP
0 *155:Y 0.01441596
1 *187:A1 0.001
2 *185:A4 0.01567272
3 *11339:3 0.009446519
4 *11339:4 0.09753466
5 *11339:5 0.0966442
6 *11339:6 0.3224728
7 *11339:7 0.001
8 *11339:8 0.4275908
9 *11339:9 0.110934
10 *11339:10 0.1163201
11 *11339:11 0.1321196
12 *11339:12 0.1057999
13 *11339:13 0.1040731
14 *11339:14 0.008189763

*RES
0 *155:Y *11339:14 0.1916667
1 *11339:7 *187:A1 0.5
2 *11339:8 *11339:7 0.25
3 *11339:8 *11339:6 13.3
4 *11339:5 *11339:4 2.830357
5 *11339:6 *11339:5 0.25
6 *11339:3 *185:A4 0.08181819
7 *11339:4 *11339:3 0.5
8 *11339:10 *11339:9 0.25
9 *11339:9 *11339:8 5.700001
10 *11339:14 *11339:13 0.5
11 *11339:13 *11339:12 3.292857
12 *11339:11 *11339:10 4.972322
13 *11339:12 *11339:11 0.2714286

*END

*D_NET *11340 1.01491 //LENGTH 10.886 DR

*CONN
*I *295:Y O *L 0.000 *C 25.660 44.351
*I *184:A2 I *L 0.542 *C 23.228 42.712
*I *187:A2 I *L 0.542 *C 19.580 46.056
*N *11340:3 *C 19.580 45.968
*N *11340:4 *C 19.580 45.925
*N *11340:5 *C 19.580 45.708
*N *11340:6 *C 19.580 45.664
*N *11340:7 *C 23.228 45.664
*N *11340:8 *C 23.228 45.621
*N *11340:9 *C 23.228 42.624
*N *11340:10 *C 23.228 42.668
*N *11340:11 *C 23.228 44.448
*N *11340:12 *C 23.228 44.448
*N *11340:13 *C 25.660 44.568
*N *11340:14 *C 25.660 44.526
*N *11340:15 *C 25.660 44.381

*CAP
0 *295:Y 0.001
1 *184:A2 0.01505377
2 *187:A2 0.01361342
3 *11340:3 0.007387226
4 *11340:4 0.01856703
5 *11340:5 0.01767657
6 *11340:6 0.172573
7 *11340:7 0.170802
8 *11340:8 0.05651569
9 *11340:9 0.008827574
10 *11340:10 0.09133674
11 *11340:11 0.1609409
12 *11340:12 0.1294603
13 *11340:13 0.1259233
14 *11340:14 0.01234443
15 *11340:15 0.01288757

*RES
0 *295:Y *11340:15 0.5
1 *11340:11 *11340:10 3.179465
2 *11340:11 *11340:8 2.09375
3 *11340:12 *11340:11 0.25
4 *11340:14 *11340:13 0.25
5 *11340:13 *11340:12 4.342858
6 *11340:15 *11340:14 0.2408333
7 *11340:9 *184:A2 0.08181819
8 *11340:10 *11340:9 0.5
9 *11340:8 *11340:7 0.25
10 *11340:7 *11340:6 6.514286
11 *11340:5 *11340:4 0.3875
12 *11340:6 *11340:5 0.25
13 *11340:3 *187:A2 0.08181819
14 *11340:4 *11340:3 0.5

*END

*D_NET *11341 2.85084 //LENGTH 32.031 DR

*CONN
*I *216:Y O *L 0.000 *C 29.764 41.772
*I *220:A2 I *L 0.555 *C 28.852 49.559
*I *272:A2 I *L 0.467 *C 26.816 54.540
*I *262:A1 I *L 0.617 *C 32.044 59.444
*I *267:A2 I *L 0.467 *C 35.986 59.444
*I *258:A3 I *L 0.522 *C 28.396 59.516
*I *104:A I *L 1.441 *C 29.764 47.852
*N *11341:7 *C 29.612 41.590
*N *11341:8 *C 29.824 47.852
*N *11341:9 *C 29.793 47.852
*N *11341:10 *C 28.396 59.471
*N *11341:11 *C 28.396 59.428
*N *11341:12 *C 35.936 59.404
*N *11341:13 *C 35.936 59.404
*N *11341:14 *C 35.996 59.344
*N *11341:15 *C 35.996 59.344
*N *11341:16 *C 32.044 59.464
*N *11341:17 *C 32.044 59.464
*N *11341:18 *C 32.044 59.344
*N *11341:19 *C 32.045 59.404
*N *11341:20 *C 32.044 59.100
*N *11341:21 *C 28.396 59.040
*N *11341:22 *C 28.396 59.040
*N *11341:23 *C 26.816 54.540
*N *11341:24 *C 26.876 54.600
*N *11341:25 *C 26.876 54.600
*N *11341:26 *C 28.396 54.480
*N *11341:27 *C 28.396 54.480
*N *11341:28 *C 28.396 49.660
*N *11341:29 *C 28.396 49.616
*N *11341:30 *C 28.852 49.559
*N *11341:31 *C 28.852 49.616
*N *11341:32 *C 29.612 49.616
*N *11341:33 *C 29.612 49.573
*N *11341:34 *C 29.612 47.852
*N *11341:35 *C 29.612 47.792
*N *11341:36 *C 29.552 47.852
*N *11341:37 *C 29.552 47.852
*N *11341:38 *C 29.552 41.772
*N *11341:39 *C 29.552 41.772
*N *11341:40 *C 29.612 41.712
*N *11341:41 *C 29.612 41.712
*N *11341:42 *C 29.612 41.712

*CAP
0 *216:Y 0.01624516
1 *220:A2 0.001
2 *272:A2 0.001
3 *262:A1 0.0156012
4 *267:A2 0.01384254
5 *258:A3 0.0137939
6 *104:A 0.02054737
7 *11341:7 0.01580686
8 *11341:8 0.01432118
9 *11341:9 0.006902218
10 *11341:10 0.007567707
11 *11341:11 0.01689254
12 *11341:12 0.007616347
13 *11341:13 0.01218816
14 *11341:14 0.01497813
15 *11341:15 0.1418532
16 *11341:16 0.009375004
17 *11341:17 0.01480484
18 *11341:18 0.01390518
19 *11341:19 0.1475138
20 *11341:20 0.1682945
21 *11341:21 0.1586198
22 *11341:22 0.2243649
23 *11341:23 0.009784819
24 *11341:24 0.01336637
25 *11341:25 0.0497473
26 *11341:26 0.05288918
27 *11341:27 0.454616
28 *11341:28 0.2464274
29 *11341:29 0.02034495
30 *11341:30 0.001
31 *11341:31 0.05976277
32 *11341:32 0.04043156
33 *11341:33 0.1192169
34 *11341:34 0.1323453
35 *11341:35 0.01207191
36 *11341:36 0.007485517
37 *11341:37 0.2478788
38 *11341:38 0.2501507
39 *11341:39 0.01295784
40 *11341:40 0.02299976
41 *11341:41 0.01124973
42 *11341:42 0.02907837

*RES
0 *216:Y *11341:42 0.304
1 *11341:30 *220:A2 0.5
2 *11341:31 *11341:30 0.25
3 *11341:31 *11341:29 0.8142858
4 *11341:28 *11341:27 8.714287
5 *11341:29 *11341:28 0.25
6 *11341:22 *11341:21 0.25
7 *11341:22 *11341:11 0.6919643
8 *11341:21 *11341:20 6.514286
9 *11341:33 *11341:32 0.25
10 *11341:32 *11341:31 1.357143
11 *11341:14 *11341:13 0.1
12 *11341:15 *11341:14 0.25
13 *11341:12 *267:A2 0.08181819
14 *11341:13 *11341:12 0.5
15 *11341:27 *11341:26 0.25
16 *11341:27 *11341:22 8.142858
17 *11341:26 *11341:25 2.714286
18 *11341:24 *11341:23 0.1
19 *11341:25 *11341:24 0.25
20 *11341:23 *272:A2 0.5
21 *11341:10 *258:A3 0.08181819
22 *11341:11 *11341:10 0.5
23 *11341:18 *11341:17 0.08181819
24 *11341:19 *11341:18 0.25
25 *11341:19 *11341:15 7.055357
26 *11341:16 *262:A1 0.1916667
27 *11341:17 *11341:16 0.5
28 *11341:34 *11341:33 3.121429
29 *11341:34 *11341:9 0.3232143
30 *11341:35 *11341:34 0.25
31 *11341:36 *11341:35 0.1
32 *11341:37 *11341:36 0.25
33 *11341:39 *11341:38 0.25
34 *11341:38 *11341:37 10.85714
35 *11341:41 *11341:40 0.25
36 *11341:41 *11341:7 0.2033333
37 *11341:40 *11341:39 0.1
38 *11341:42 *11341:41 0.5
39 *11341:8 *104:A 0.1916667
40 *11341:9 *11341:8 0.5
41 *11341:20 *11341:19 0.5428572

*END

*D_NET *11342 0.655668 //LENGTH 7.470 DR

*CONN
*I *217:Y O *L 0.000 *C 35.236 49.185
*I *181:A4 I *L 0.447 *C 37.212 46.068
*I *141:A I *L 0.588 *C 38.732 49.372
*N *11342:3 *C 38.732 49.312
*N *11342:4 *C 38.732 49.312
*N *11342:5 *C 37.212 46.088
*N *11342:6 *C 37.212 46.132
*N *11342:7 *C 37.212 49.269
*N *11342:8 *C 37.212 49.312
*N *11342:9 *C 35.236 49.312
*N *11342:10 *C 35.236 49.312
*N *11342:11 *C 35.236 49.185

*CAP
0 *217:Y 0.001
1 *181:A4 0.01298344
2 *141:A 0.001
3 *11342:3 0.001
4 *11342:4 0.07222147
5 *11342:5 0.00675725
6 *11342:6 0.1423326
7 *11342:7 0.1414421
8 *11342:8 0.1614413
9 *11342:9 0.09614747
10 *11342:10 0.01009336
11 *11342:11 0.009249035

*RES
0 *217:Y *11342:11 0.5
1 *11342:3 *141:A 0.5
2 *11342:4 *11342:3 0.25
3 *11342:10 *11342:9 0.25
4 *11342:9 *11342:8 3.592857
5 *11342:11 *11342:10 0.1916667
6 *11342:7 *11342:6 5.601786
7 *11342:8 *11342:7 0.25
8 *11342:8 *11342:4 2.714286
9 *11342:5 *181:A4 0.08181819
10 *11342:6 *11342:5 0.5

*END

*D_NET *11343 1.482574 //LENGTH 14.971 DR

*CONN
*I *107:QN O *L 0.000 *C 48.004 33.352
*I *136:A2 I *L 0.467 *C 50.578 36.036
*I *123:A2 I *L 0.467 *C 50.578 37.860
*I *111:A2 I *L 0.467 *C 49.370 42.712
*N *11343:4 *C 49.432 42.684
*N *11343:5 *C 49.432 42.684
*N *11343:6 *C 49.372 40.844
*N *11343:7 *C 49.372 40.800
*N *11343:8 *C 50.588 40.800
*N *11343:9 *C 50.588 40.757
*N *11343:10 *C 50.528 37.820
*N *11343:11 *C 50.528 37.820
*N *11343:12 *C 50.528 35.996
*N *11343:13 *C 50.528 35.996
*N *11343:14 *C 50.588 36.544
*N *11343:15 *C 50.588 36.544
*N *11343:16 *C 48.308 36.544
*N *11343:17 *C 48.308 36.501
*N *11343:18 *C 48.308 33.412
*N *11343:19 *C 48.004 33.352

*CAP
0 *107:QN 0.001
1 *136:A2 0.01427132
2 *123:A2 0.01364356
3 *111:A2 0.01479782
4 *11343:4 0.008571626
5 *11343:5 0.1396902
6 *11343:6 0.122081
7 *11343:7 0.0519168
8 *11343:8 0.05217739
9 *11343:9 0.1636201
10 *11343:10 0.007417365
11 *11343:11 0.2415265
12 *11343:12 0.008045129
13 *11343:13 0.04050368
14 *11343:14 0.1038043
15 *11343:15 0.1083066
16 *11343:16 0.1082043
17 *11343:17 0.1204044
18 *11343:18 0.1426401
19 *11343:19 0.01995147

*RES
0 *107:QN *11343:19 0.5
1 *11343:10 *123:A2 0.08181819
2 *11343:11 *11343:10 0.5
3 *11343:11 *11343:9 5.24375
4 *11343:14 *11343:13 0.9785715
5 *11343:14 *11343:11 2.278571
6 *11343:15 *11343:14 0.25
7 *11343:17 *11343:16 0.25
8 *11343:16 *11343:15 4.071428
9 *11343:19 *11343:18 0.55
10 *11343:12 *136:A2 0.08181819
11 *11343:13 *11343:12 0.5
12 *11343:9 *11343:8 0.25
13 *11343:8 *11343:7 2.171429
14 *11343:6 *11343:5 3.286607
15 *11343:7 *11343:6 0.25
16 *11343:4 *111:A2 0.1916667
17 *11343:5 *11343:4 0.5
18 *11343:18 *11343:17 5.515179

*END

*D_NET *11344 0.5882666 //LENGTH 5.565 DR

*CONN
*I *108:QN O *L 0.000 *C 49.220 35.692
*I *130:A2 I *L 0.467 *C 50.130 34.504
*I *123:A1 I *L 0.552 *C 50.740 37.556
*N *11344:3 *C 50.740 37.576
*N *11344:4 *C 50.740 37.545
*N *11344:5 *C 50.740 35.676
*N *11344:6 *C 50.740 35.632
*N *11344:7 *C 50.192 34.476
*N *11344:8 *C 50.192 34.476
*N *11344:9 *C 50.132 35.589
*N *11344:10 *C 50.132 35.632
*N *11344:11 *C 49.220 35.632
*N *11344:12 *C 49.220 35.632

*CAP
0 *108:QN 0.001
1 *130:A2 0.01614447
2 *123:A1 0.01703741
3 *11344:3 0.01081122
4 *11344:4 0.1233008
5 *11344:5 0.1224104
6 *11344:6 0.03030002
7 *11344:7 0.009918274
8 *11344:8 0.08068823
9 *11344:9 0.06521159
10 *11344:10 0.06856777
11 *11344:11 0.04187636
12 *11344:12 0.001

*RES
0 *108:QN *11344:12 0.5
1 *11344:12 *11344:11 0.25
2 *11344:11 *11344:10 1.628572
3 *11344:5 *11344:4 3.338393
4 *11344:6 *11344:5 0.25
5 *11344:3 *123:A1 0.1916667
6 *11344:4 *11344:3 0.5
7 *11344:9 *11344:8 1.986607
8 *11344:10 *11344:9 0.25
9 *11344:10 *11344:6 1.085714
10 *11344:7 *130:A2 0.1916667
11 *11344:8 *11344:7 0.5

*END

*D_NET *11345 0.2556971 //LENGTH 2.242 DR

*CONN
*I *106:QN O *L 0.000 *C 49.524 41.468
*I *325:A I *L 0.564 *C 49.980 42.684
*N *11345:2 *C 49.980 42.641
*N *11345:3 *C 49.980 42.364
*N *11345:4 *C 49.980 42.320
*N *11345:5 *C 49.524 42.320
*N *11345:6 *C 49.524 42.277
*N *11345:7 *C 49.524 41.512

*CAP
0 *106:QN 0.001
1 *325:A 0.001
2 *11345:2 0.04101123
3 *11345:3 0.03873717
4 *11345:4 0.02787772
5 *11345:5 0.02688889
6 *11345:6 0.06001058
7 *11345:7 0.05917154

*RES
0 *106:QN *11345:7 0.5
1 *11345:2 *325:A 0.5
2 *11345:3 *11345:2 0.4946429
3 *11345:4 *11345:3 0.25
4 *11345:6 *11345:5 0.25
5 *11345:5 *11345:4 0.8142858
6 *11345:7 *11345:6 1.366072

*END

*D_NET *11346 2.089335 //LENGTH 22.819 DR

*CONN
*I *136:Y O *L 0.000 *C 50.892 36.113
*I *146:A I *L 0.588 *C 46.180 44.508
*I *110:A1 I *L 0.540 *C 43.444 47.880
*I *113:A1 I *L 0.552 *C 51.348 34.212
*N *11346:4 *C 51.348 34.232
*N *11346:5 *C 51.348 34.263
*N *11346:6 *C 51.348 36.197
*N *11346:7 *C 51.348 36.240
*N *11346:8 *C 43.444 47.792
*N *11346:9 *C 43.444 47.749
*N *11346:10 *C 43.444 45.708
*N *11346:11 *C 43.444 45.664
*N *11346:12 *C 46.180 45.664
*N *11346:13 *C 46.180 45.621
*N *11346:14 *C 46.180 44.508
*N *11346:15 *C 46.180 36.391
*N *11346:16 *C 46.180 36.360
*N *11346:17 *C 50.892 36.240
*N *11346:18 *C 50.892 36.240
*N *11346:19 *C 50.892 36.113

*CAP
0 *136:Y 0.001
1 *146:A 0.001
2 *110:A1 0.01751037
3 *113:A1 0.01833923
4 *11346:4 0.01211304
5 *11346:5 0.09023922
6 *11346:6 0.08934876
7 *11346:7 0.02284947
8 *11346:8 0.01128417
9 *11346:9 0.16602
10 *11346:10 0.1651296
11 *11346:11 0.10895
12 *11346:12 0.108701
13 *11346:13 0.04527659
14 *11346:14 0.4253977
15 *11346:15 0.3639527
16 *11346:16 0.1943509
17 *11346:17 0.2200367
18 *11346:18 0.01419051
19 *11346:19 0.01364488

*RES
0 *136:Y *11346:19 0.5
1 *11346:14 *146:A 0.5
2 *11346:14 *11346:13 1.986607
3 *11346:15 *11346:14 14.49464
4 *11346:16 *11346:15 0.25
5 *11346:18 *11346:17 0.25
6 *11346:17 *11346:16 8.414287
7 *11346:17 *11346:7 0.8142857
8 *11346:19 *11346:18 0.1916667
9 *11346:6 *11346:5 3.452679
10 *11346:7 *11346:6 0.25
11 *11346:4 *113:A1 0.1916667
12 *11346:5 *11346:4 0.5
13 *11346:13 *11346:12 0.25
14 *11346:12 *11346:11 4.885715
15 *11346:10 *11346:9 3.644643
16 *11346:11 *11346:10 0.25
17 *11346:8 *110:A1 0.08181817
18 *11346:9 *11346:8 0.5

*END

*D_NET *11347 3.580263 //LENGTH 37.498 DR

*CONN
*I *128:Y O *L 0.000 *C 51.652 39.457
*I *110:A2 I *L 0.489 *C 43.596 47.548
*I *157:A1 I *L 0.536 *C 44.326 29.308
*I *154:A I *L 0.588 *C 41.468 22.620
*N *11347:4 *C 41.468 22.560
*N *11347:5 *C 41.468 22.560
*N *11347:6 *C 43.748 22.560
*N *11347:7 *C 43.748 22.604
*N *11347:8 *C 43.853 29.308
*N *11347:9 *C 43.808 29.308
*N *11347:10 *C 43.596 47.505
*N *11347:11 *C 43.596 44.660
*N *11347:12 *C 43.292 44.660
*N *11347:13 *C 43.292 39.644
*N *11347:14 *C 43.748 39.541
*N *11347:15 *C 43.748 39.584
*N *11347:16 *C 51.652 39.584
*N *11347:17 *C 51.652 39.584
*N *11347:18 *C 51.652 39.457

*CAP
0 *128:Y 0.001
1 *110:A2 0.001
2 *157:A1 0.04042849
3 *154:A 0.001
4 *11347:4 0.001
5 *11347:5 0.08575284
6 *11347:6 0.08559378
7 *11347:7 0.3718947
8 *11347:8 0.0342023
9 *11347:9 0.861249
10 *11347:10 0.1807946
11 *11347:11 0.1996316
12 *11347:12 0.2841131
13 *11347:13 0.2895354
14 *11347:14 0.4855519
15 *11347:15 0.3157517
16 *11347:16 0.3153527
17 *11347:17 0.0134378
18 *11347:18 0.01297362

*RES
0 *128:Y *11347:18 0.5
1 *11347:7 *11347:6 0.25
2 *11347:6 *11347:5 4.071429
3 *11347:4 *154:A 0.5
4 *11347:5 *11347:4 0.25
5 *11347:8 *157:A1 0.946
6 *11347:9 *11347:8 0.5
7 *11347:9 *11347:7 11.97232
8 *11347:14 *11347:13 0.8142858
9 *11347:14 *11347:9 18.27232
10 *11347:15 *11347:14 0.25
11 *11347:17 *11347:16 0.25
12 *11347:16 *11347:15 14.11429
13 *11347:18 *11347:17 0.1916667
14 *11347:10 *110:A2 0.5
15 *11347:13 *11347:12 8.957144
16 *11347:12 *11347:11 0.5428572
17 *11347:11 *11347:10 5.079465

*END

*D_NET *11348 0.8490167 //LENGTH 10.594 DR

*CONN
*I *111:Y O *L 0.000 *C 49.068 43.432
*I *110:A3 I *L 0.451 *C 43.748 47.880
*N *11348:2 *C 43.748 47.792
*N *11348:3 *C 43.748 47.749
*N *11348:4 *C 43.748 47.228
*N *11348:5 *C 43.748 47.184
*N *11348:6 *C 48.764 47.184
*N *11348:7 *C 48.764 47.141
*N *11348:8 *C 48.764 43.444
*N *11348:9 *C 48.965 43.444
*N *11348:10 *C 49.008 43.444

*CAP
0 *111:Y 0.01896517
1 *110:A3 0.01508973
2 *11348:2 0.008863533
3 *11348:3 0.04193375
4 *11348:4 0.04104329
5 *11348:5 0.1925394
6 *11348:6 0.1915997
7 *11348:7 0.1480278
8 *11348:8 0.1697931
9 *11348:9 0.008422392
10 *11348:10 0.01273898

*RES
0 *111:Y *11348:10 0.08181819
1 *11348:10 *11348:9 0.5
2 *11348:9 *11348:8 0.3580357
3 *11348:7 *11348:6 0.25
4 *11348:6 *11348:5 8.957144
5 *11348:4 *11348:3 0.9303573
6 *11348:5 *11348:4 0.25
7 *11348:2 *110:A3 0.08181819
8 *11348:3 *11348:2 0.5
9 *11348:8 *11348:7 6.600893

*END

*D_NET *11349 0.7155778 //LENGTH 8.577 DR

*CONN
*I *130:Y O *L 0.000 *C 50.132 33.999
*I *143:A I *L 0.588 *C 53.476 37.820
*I *113:A2 I *L 0.467 *C 51.498 34.504
*N *11349:3 *C 51.560 34.476
*N *11349:4 *C 51.560 34.476
*N *11349:5 *C 53.476 37.760
*N *11349:6 *C 53.476 37.760
*N *11349:7 *C 51.804 37.760
*N *11349:8 *C 51.804 37.717
*N *11349:9 *C 51.804 34.172
*N *11349:10 *C 51.500 34.172
*N *11349:11 *C 51.500 34.112
*N *11349:12 *C 50.132 34.112
*N *11349:13 *C 50.132 34.112
*N *11349:14 *C 50.192 34.026
*N *11349:15 *C 50.192 34.026

*CAP
0 *130:Y 0.01536209
1 *143:A 0.001
2 *113:A2 0.0139836
3 *11349:3 0.007757404
4 *11349:4 0.04076256
5 *11349:5 0.001
6 *11349:6 0.06812579
7 *11349:7 0.06960699
8 *11349:8 0.1454722
9 *11349:9 0.1663842
10 *11349:10 0.03692447
11 *11349:11 0.05372198
12 *11349:12 0.05359286
13 *11349:13 0.01177865
14 *11349:14 0.02096906
15 *11349:15 0.009135898

*RES
0 *130:Y *11349:15 0.1916667
1 *11349:8 *11349:7 0.25
2 *11349:7 *11349:6 2.985714
3 *11349:5 *143:A 0.5
4 *11349:6 *11349:5 0.25
5 *11349:3 *113:A2 0.1916667
6 *11349:4 *11349:3 0.5
7 *11349:10 *11349:9 0.5428572
8 *11349:10 *11349:4 0.5428572
9 *11349:11 *11349:10 0.25
10 *11349:13 *11349:12 0.25
11 *11349:12 *11349:11 2.442857
12 *11349:15 *11349:14 0.5
13 *11349:14 *11349:13 0.1433333
14 *11349:9 *11349:8 6.329465

*END

*D_NET *11350 0.2271012 //LENGTH 2.850 DR

*CONN
*I *114:Y O *L 0.000 *C 42.988 32.956
*I *107:D I *L 0.613 *C 45.268 32.839
*N *11350:2 *C 45.268 32.839
*N *11350:3 *C 45.268 32.896
*N *11350:4 *C 42.988 32.896
*N *11350:5 *C 42.988 32.896
*N *11350:6 *C 43.048 32.956
*N *11350:7 *C 43.048 32.956

*CAP
0 *114:Y 0.01450844
1 *107:D 0.001
2 *11350:2 0.001
3 *11350:3 0.08919134
4 *11350:4 0.08821666
5 *11350:5 0.00960941
6 *11350:6 0.01529313
7 *11350:7 0.008282244

*RES
0 *114:Y *11350:7 0.1916667
1 *11350:7 *11350:6 0.5
2 *11350:6 *11350:5 0.1
3 *11350:5 *11350:4 0.25
4 *11350:4 *11350:3 4.071429
5 *11350:2 *107:D 0.5
6 *11350:3 *11350:2 0.25

*END

*D_NET *11351 2.139431 //LENGTH 23.369 DR

*CONN
*I *124:Y O *L 0.000 *C 38.124 26.724
*I *157:A3 I *L 0.468 *C 44.812 29.491
*I *118:A2 I *L 0.583 *C 47.396 39.368
*N *11351:3 *C 47.396 39.158
*N *11351:4 *C 47.396 39.280
*N *11351:5 *C 47.396 39.280
*N *11351:6 *C 47.396 39.280
*N *11351:7 *C 44.964 39.280
*N *11351:8 *C 44.964 39.237
*N *11351:9 *C 44.964 29.308
*N *11351:10 *C 44.812 29.449
*N *11351:11 *C 44.813 29.308
*N *11351:12 *C 44.812 29.248
*N *11351:13 *C 38.276 29.248
*N *11351:14 *C 38.276 29.205
*N *11351:15 *C 38.336 26.724
*N *11351:16 *C 38.291 26.724

*CAP
0 *124:Y 0.02391004
1 *157:A3 0.001
2 *118:A2 0.01491974
3 *11351:3 0.01659879
4 *11351:4 0.008693547
5 *11351:5 0.010272
6 *11351:6 0.1205296
7 *11351:7 0.1225023
8 *11351:8 0.502821
9 *11351:9 0.5184955
10 *11351:10 0.02152716
11 *11351:11 0.02843354
12 *11351:12 0.2382047
13 *11351:13 0.2373815
14 *11351:14 0.1214944
15 *11351:15 0.134963
16 *11351:16 0.01768385

*RES
0 *124:Y *11351:16 0.5520001
1 *11351:8 *11351:7 0.25
2 *11351:7 *11351:6 4.342858
3 *11351:5 *11351:4 0.5
4 *11351:5 *11351:3 0.2033333
5 *11351:6 *11351:5 0.25
6 *11351:4 *118:A2 0.08181819
7 *11351:10 *157:A3 0.5
8 *11351:11 *11351:10 0.2341667
9 *11351:11 *11351:9 0.2928571
10 *11351:12 *11351:11 0.25
11 *11351:14 *11351:13 0.25
12 *11351:13 *11351:12 11.67143
13 *11351:16 *11351:15 0.5
14 *11351:15 *11351:14 4.429465
15 *11351:9 *11351:8 17.72947

*END

*D_NET *11352 1.075235 //LENGTH 11.707 DR

*CONN
*I *115:Y O *L 0.000 *C 39.066 32.642
*I *114:A2 I *L 0.512 *C 42.304 32.871
*I *152:A3 I *L 0.583 *C 39.609 39.616
*N *11352:3 *C 39.644 39.553
*N *11352:4 *C 39.644 37.212
*N *11352:5 *C 39.492 37.212
*N *11352:6 *C 42.228 32.926
*N *11352:7 *C 42.228 32.865
*N *11352:8 *C 42.228 32.636
*N *11352:9 *C 42.228 32.592
*N *11352:10 *C 39.492 32.592
*N *11352:11 *C 39.492 32.666
*N *11352:12 *C 39.311 32.652
*N *11352:13 *C 39.235 32.652

*CAP
0 *115:Y 0.02224064
1 *114:A2 0.01919007
2 *152:A3 0.001
3 *11352:3 0.1284654
4 *11352:4 0.1441213
5 *11352:5 0.2309007
6 *11352:6 0.01296388
7 *11352:7 0.02564371
8 *11352:8 0.02475325
9 *11352:9 0.1087818
10 *11352:10 0.106991
11 *11352:11 0.2277957
12 *11352:12 0.006373385
13 *11352:13 0.01601445

*RES
0 *115:Y *11352:13 0.338
1 *11352:3 *152:A3 0.5
2 *11352:13 *11352:12 0.5
3 *11352:12 *11352:11 0.3232143
4 *11352:11 *11352:10 0.25
5 *11352:11 *11352:5 8.118751
6 *11352:10 *11352:9 4.885715
7 *11352:8 *11352:7 0.4098215
8 *11352:9 *11352:8 0.25
9 *11352:6 *114:A2 0.2416667
10 *11352:7 *11352:6 0.5
11 *11352:5 *11352:4 0.2714286
12 *11352:4 *11352:3 4.180357

*END

*D_NET *11353 0.9724063 //LENGTH 9.687 DR

*CONN
*I *137:Y O *L 0.000 *C 35.692 35.084
*I *134:A1 I *L 0.617 *C 39.796 37.860
*I *144:A I *L 0.588 *C 40.860 34.476
*N *11353:3 *C 40.860 34.520
*N *11353:4 *C 40.860 34.981
*N *11353:5 *C 40.860 35.024
*N *11353:6 *C 39.796 37.760
*N *11353:7 *C 39.796 37.729
*N *11353:8 *C 39.796 35.068
*N *11353:9 *C 39.796 35.024
*N *11353:10 *C 35.692 35.024
*N *11353:11 *C 35.692 35.024
*N *11353:12 *C 35.632 35.084
*N *11353:13 *C 35.632 35.084

*CAP
0 *137:Y 0.01838804
1 *134:A1 0.01751801
2 *144:A 0.001
3 *11353:3 0.02733337
4 *11353:4 0.02488637
5 *11353:5 0.04703265
6 *11353:6 0.01129182
7 *11353:7 0.1792622
8 *11353:8 0.1783718
9 *11353:9 0.2319571
10 *11353:10 0.1906175
11 *11353:11 0.01190091
12 *11353:12 0.02068469
13 *11353:13 0.01216184

*RES
0 *137:Y *11353:13 0.1916667
1 *11353:8 *11353:7 4.752679
2 *11353:9 *11353:8 0.25
3 *11353:9 *11353:5 1.9
4 *11353:6 *134:A1 0.1916667
5 *11353:7 *11353:6 0.5
6 *11353:4 *11353:3 0.8232143
7 *11353:5 *11353:4 0.25
8 *11353:3 *144:A 0.5
9 *11353:11 *11353:10 0.25
10 *11353:10 *11353:9 7.328572
11 *11353:13 *11353:12 0.5
12 *11353:12 *11353:11 0.1

*END

*D_NET *11354 0.6279275 //LENGTH 7.702 DR

*CONN
*I *131:Y O *L 0.000 *C 42.896 36.123
*I *150:A I *L 0.588 *C 44.812 34.476
*I *108:D I *L 0.613 *C 46.153 36.150
*N *11354:3 *C 46.153 36.150
*N *11354:4 *C 46.180 35.676
*N *11354:5 *C 46.180 35.632
*N *11354:6 *C 44.812 34.416
*N *11354:7 *C 44.812 34.416
*N *11354:8 *C 43.444 34.416
*N *11354:9 *C 43.444 34.460
*N *11354:10 *C 43.444 35.589
*N *11354:11 *C 43.444 35.632
*N *11354:12 *C 42.836 35.632
*N *11354:13 *C 42.836 35.676
*N *11354:14 *C 42.896 36.123

*CAP
0 *131:Y 0.001
1 *150:A 0.001
2 *108:D 0.001
3 *11354:3 0.03992066
4 *11354:4 0.02886121
5 *11354:5 0.1091995
6 *11354:6 0.001
7 *11354:7 0.05580915
8 *11354:8 0.0544947
9 *11354:9 0.05623939
10 *11354:10 0.05623939
11 *11354:11 0.1332249
12 *11354:12 0.02907417
13 *11354:13 0.02271529
14 *11354:14 0.03814913

*RES
0 *131:Y *11354:14 0.5
1 *11354:10 *11354:9 2.016072
2 *11354:11 *11354:10 0.25
3 *11354:11 *11354:5 4.885715
4 *11354:9 *11354:8 0.25
5 *11354:8 *11354:7 2.442857
6 *11354:6 *150:A 0.5
7 *11354:7 *11354:6 0.25
8 *11354:13 *11354:12 0.25
9 *11354:12 *11354:11 1.085714
10 *11354:14 *11354:13 0.7991072
11 *11354:4 *11354:3 0.8473215
12 *11354:5 *11354:4 0.25
13 *11354:3 *108:D 0.5

*END

*D_NET *11355 0.3698302 //LENGTH 4.908 DR

*CONN
*I *117:Y O *L 0.000 *C 35.388 41.655
*I *330:A I *L 0.564 *C 38.884 41.164
*N *11355:2 *C 38.884 41.164
*N *11355:3 *C 39.036 41.164
*N *11355:4 *C 39.036 41.365
*N *11355:5 *C 39.036 41.408
*N *11355:6 *C 35.388 41.408
*N *11355:7 *C 35.388 41.451
*N *11355:8 *C 35.388 41.613

*CAP
0 *117:Y 0.001
1 *330:A 0.001
2 *11355:2 0.0103999
3 *11355:3 0.03153243
4 *11355:4 0.01581199
5 *11355:5 0.1378808
6 *11355:6 0.137028
7 *11355:7 0.01800808
8 *11355:8 0.01716904

*RES
0 *117:Y *11355:8 0.5
1 *11355:2 *330:A 0.5
2 *11355:4 *11355:3 0.3580357
3 *11355:5 *11355:4 0.25
4 *11355:7 *11355:6 0.25
5 *11355:6 *11355:5 6.514287
6 *11355:8 *11355:7 0.27
7 *11355:3 *11355:2 0.2714286

*END

*D_NET *11356 0.4423988 //LENGTH 4.883 DR

*CONN
*I *116:Y O *L 0.000 *C 37.060 38.428
*I *152:A2 I *L 0.510 *C 39.201 40.042
*N *11356:2 *C 39.188 40.014
*N *11356:3 *C 39.188 39.971
*N *11356:4 *C 39.188 39.020
*N *11356:5 *C 39.188 38.976
*N *11356:6 *C 36.908 38.976
*N *11356:7 *C 36.908 38.933
*N *11356:8 *C 36.848 38.428
*N *11356:9 *C 36.893 38.428

*CAP
0 *116:Y 0.02362469
1 *152:A2 0.02026309
2 *11356:2 0.01403689
3 *11356:3 0.06718329
4 *11356:4 0.06629284
5 *11356:5 0.08947661
6 *11356:6 0.08789393
7 *11356:7 0.02161377
8 *11356:8 0.03461529
9 *11356:9 0.01739849

*RES
0 *116:Y *11356:9 0.5200001
1 *11356:2 *152:A2 0.09454545
2 *11356:3 *11356:2 0.5
3 *11356:4 *11356:3 1.750893
4 *11356:5 *11356:4 0.25
5 *11356:7 *11356:6 0.25
6 *11356:6 *11356:5 4.071428
7 *11356:9 *11356:8 0.5
8 *11356:8 *11356:7 0.9508929

*END

*D_NET *11357 1.625505 //LENGTH 16.350 DR

*CONN
*I *133:Y O *L 0.000 *C 43.444 43.748
*I *158:A I *L 0.588 *C 39.963 47.852
*I *317:A I *L 0.564 *C 40.089 41.164
*I *145:A I *L 0.588 *C 42.228 39.340
*N *11357:4 *C 42.228 39.384
*N *11357:5 *C 39.931 41.164
*N *11357:6 *C 39.888 41.164
*N *11357:7 *C 39.948 41.104
*N *11357:8 *C 39.948 41.104
*N *11357:9 *C 40.252 47.912
*N *11357:10 *C 40.252 47.912
*N *11357:11 *C 40.404 47.852
*N *11357:12 *C 40.404 41.148
*N *11357:13 *C 40.404 41.104
*N *11357:14 *C 42.228 41.104
*N *11357:15 *C 42.228 41.104
*N *11357:16 *C 42.168 43.748
*N *11357:17 *C 42.213 43.748

*CAP
0 *133:Y 0.09248401
1 *158:A 0.01981206
2 *317:A 0.0268129
3 *145:A 0.001
4 *11357:4 0.07994354
5 *11357:5 0.02058671
6 *11357:6 0.02444573
7 *11357:7 0.01367959
8 *11357:8 0.02846758
9 *11357:9 0.02723638
10 *11357:10 0.007140931
11 *11357:11 0.3294724
12 *11357:12 0.3146875
13 *11357:13 0.1130055
14 *11357:14 0.09286869
15 *11357:15 0.211396
16 *11357:16 0.1362076
17 *11357:17 0.08625782

*RES
0 *133:Y *11357:17 2.462
1 *11357:12 *11357:11 11.97232
2 *11357:13 *11357:12 0.25
3 *11357:13 *11357:8 0.8142858
4 *11357:9 *158:A 0.578
5 *11357:10 *11357:9 0.5
6 *11357:15 *11357:14 0.25
7 *11357:15 *11357:4 3.072321
8 *11357:14 *11357:13 3.257143
9 *11357:7 *11357:6 0.1
10 *11357:8 *11357:7 0.25
11 *11357:5 *317:A 0.2633334
12 *11357:6 *11357:5 0.5
13 *11357:4 *145:A 0.5
14 *11357:17 *11357:16 0.5
15 *11357:16 *11357:15 4.721429
16 *11357:11 *11357:10 0.2714286

*END

*D_NET *11358 0.8267071 //LENGTH 9.411 DR

*CONN
*I *139:Y O *L 0.000 *C 34.733 32.555
*I *115:A3 I *L 0.459 *C 38.124 32.681
*I *137:A1 I *L 0.671 *C 35.842 34.285
*I *132:A3 I *L 0.590 *C 38.276 34.314
*N *11358:4 *C 38.276 34.299
*N *11358:5 *C 38.276 34.286
*N *11358:6 *C 38.276 33.868
*N *11358:7 *C 35.842 34.285
*N *11358:8 *C 35.844 33.852
*N *11358:9 *C 35.844 33.808
*N *11358:10 *C 38.124 33.808
*N *11358:11 *C 38.125 33.868
*N *11358:12 *C 38.124 32.592
*N *11358:13 *C 38.124 32.592
*N *11358:14 *C 38.124 32.592
*N *11358:15 *C 34.780 32.592
*N *11358:16 *C 34.780 32.592
*N *11358:17 *C 34.840 32.525
*N *11358:18 *C 34.840 32.525

*CAP
0 *139:Y 0.01695211
1 *115:A3 0.01583573
2 *137:A1 0.001
3 *132:A3 0.008384418
4 *11358:4 0.00630902
5 *11358:5 0.0306847
6 *11358:6 0.04141975
7 *11358:7 0.04896147
8 *11358:8 0.02908855
9 *11358:9 0.09307574
10 *11358:10 0.09143867
11 *11358:11 0.07875658
12 *11358:12 0.009609537
13 *11358:13 0.06970792
14 *11358:14 0.1183976
15 *11358:15 0.1197073
16 *11358:16 0.01304446
17 *11358:17 0.02360757
18 *11358:18 0.01072591

*RES
0 *139:Y *11358:18 0.1916667
1 *11358:11 *11358:10 0.25
2 *11358:11 *11358:6 0.2696429
3 *11358:10 *11358:9 4.071428
4 *11358:8 *11358:7 0.7741073
5 *11358:9 *11358:8 0.25
6 *11358:7 *137:A1 0.5
7 *11358:12 *115:A3 0.08181819
8 *11358:13 *11358:12 0.5
9 *11358:13 *11358:11 2.278571
10 *11358:14 *11358:13 0.25
11 *11358:16 *11358:15 0.25
12 *11358:15 *11358:14 5.971429
13 *11358:18 *11358:17 0.5
14 *11358:17 *11358:16 0.1116667
15 *11358:4 *132:A3 0.02727273
16 *11358:5 *11358:4 1
17 *11358:6 *11358:5 0.7455358

*END

*D_NET *11359 0.4017379 //LENGTH 3.663 DR

*CONN
*I *118:Y O *L 0.000 *C 47.092 40.040
*I *106:RSTB I *L 0.758 *C 45.902 41.763
*N *11359:2 *C 45.962 41.772
*N *11359:3 *C 45.936 41.772
*N *11359:4 *C 45.876 41.148
*N *11359:5 *C 45.876 41.104
*N *11359:6 *C 47.092 41.104
*N *11359:7 *C 47.092 41.061
*N *11359:8 *C 47.092 40.071

*CAP
0 *118:Y 0.001
1 *106:RSTB 0.02185056
2 *11359:2 0.01562436
3 *11359:3 0.04888241
4 *11359:4 0.03362987
5 *11359:5 0.06997539
6 *11359:6 0.0666877
7 *11359:7 0.07201947
8 *11359:8 0.07206808

*RES
0 *118:Y *11359:8 0.5
1 *11359:8 *11359:7 1.89375
2 *11359:7 *11359:6 0.25
3 *11359:6 *11359:5 2.171429
4 *11359:4 *11359:3 1.115179
5 *11359:5 *11359:4 0.25
6 *11359:2 *106:RSTB 0.2341667
7 *11359:3 *11359:2 0.5

*END

*D_NET *11360 0.533161 //LENGTH 5.493 DR

*CONN
*I *120:Y O *L 0.000 *C 44.204 38.428
*I *118:A3 I *L 0.590 *C 47.536 39.532
*N *11360:2 *C 47.464 39.547
*N *11360:3 *C 47.464 39.547
*N *11360:4 *C 47.548 38.412
*N *11360:5 *C 47.548 38.368
*N *11360:6 *C 44.204 38.368
*N *11360:7 *C 44.204 38.368
*N *11360:8 *C 44.264 38.428
*N *11360:9 *C 44.264 38.428

*CAP
0 *120:Y 0.01832986
1 *118:A3 0.01904332
2 *11360:2 0.01281712
3 *11360:3 0.08812869
4 *11360:4 0.07051419
5 *11360:5 0.1395959
6 *11360:6 0.1440243
7 *11360:7 0.01137969
8 *11360:8 0.01722437
9 *11360:9 0.01210367

*RES
0 *120:Y *11360:9 0.1916667
1 *11360:2 *118:A3 0.1916667
2 *11360:3 *11360:2 0.5
3 *11360:4 *11360:3 2.048215
4 *11360:5 *11360:4 0.25
5 *11360:7 *11360:6 0.25
6 *11360:6 *11360:5 5.971429
7 *11360:9 *11360:8 0.5
8 *11360:8 *11360:7 0.1

*END

*D_NET *11361 0.8718145 //LENGTH 9.853 DR

*CONN
*I *119:Y O *L 0.000 *C 50.436 45.547
*I *118:A4 I *L 0.574 *C 47.700 39.368
*N *11361:2 *C 47.760 39.340
*N *11361:3 *C 47.760 39.340
*N *11361:4 *C 47.700 45.317
*N *11361:5 *C 47.700 45.360
*N *11361:6 *C 50.436 45.360
*N *11361:7 *C 50.436 45.403
*N *11361:8 *C 50.376 45.547
*N *11361:9 *C 50.376 45.547

*CAP
0 *119:Y 0.01673349
1 *118:A4 0.01641795
2 *11361:2 0.01019176
3 *11361:3 0.2749456
4 *11361:4 0.2584769
5 *11361:5 0.1286757
6 *11361:6 0.1267744
7 *11361:7 0.008162323
8 *11361:8 0.020929
9 *11361:9 0.01050729

*RES
0 *119:Y *11361:9 0.1916667
1 *11361:9 *11361:8 0.5
2 *11361:8 *11361:7 0.2408333
3 *11361:7 *11361:6 0.25
4 *11361:6 *11361:5 4.885715
5 *11361:4 *11361:3 10.67232
6 *11361:5 *11361:4 0.25
7 *11361:2 *118:A4 0.1916667
8 *11361:3 *11361:2 0.5

*END

*D_NET *11362 1.19306 //LENGTH 11.319 DR

*CONN
*I *123:Y O *L 0.000 *C 50.892 38.424
*I *119:A3 I *L 0.662 *C 50.892 45.911
*I *148:A I *L 0.588 *C 52.412 47.852
*N *11362:3 *C 52.412 47.792
*N *11362:4 *C 52.412 47.792
*N *11362:5 *C 50.892 47.792
*N *11362:6 *C 50.892 47.749
*N *11362:7 *C 50.892 45.911
*N *11362:8 *C 50.832 38.428
*N *11362:9 *C 50.832 38.428

*CAP
0 *123:Y 0.0189207
1 *119:A3 0.001
2 *148:A 0.001
3 *11362:3 0.001
4 *11362:4 0.07244256
5 *11362:5 0.072513
6 *11362:6 0.1043815
7 *11362:7 0.5089774
8 *11362:8 0.4001306
9 *11362:9 0.0126945

*RES
0 *123:Y *11362:9 0.08181819
1 *11362:7 *119:A3 0.5
2 *11362:7 *11362:6 3.28125
3 *11362:6 *11362:5 0.25
4 *11362:5 *11362:4 2.714286
5 *11362:3 *148:A 0.5
6 *11362:4 *11362:3 0.25
7 *11362:9 *11362:8 0.5
8 *11362:8 *11362:7 13.4125

*END

*D_NET *11363 0.8593029 //LENGTH 9.492 DR

*CONN
*I *121:Y O *L 0.000 *C 35.388 38.124
*I *120:A2 I *L 0.467 *C 43.903 37.860
*N *11363:2 *C 43.900 37.880
*N *11363:3 *C 43.900 37.880
*N *11363:4 *C 43.900 38.064
*N *11363:5 *C 43.900 38.064
*N *11363:6 *C 35.388 38.064
*N *11363:7 *C 35.388 38.064
*N *11363:8 *C 35.328 38.124
*N *11363:9 *C 35.328 38.124

*CAP
0 *121:Y 0.01418584
1 *120:A2 0.01388221
2 *11363:2 0.007656017
3 *11363:3 0.01605831
4 *11363:4 0.01524277
5 *11363:5 0.3741955
6 *11363:6 0.3734512
7 *11363:7 0.01321278
8 *11363:8 0.02345867
9 *11363:9 0.007959642

*RES
0 *121:Y *11363:9 0.1916667
1 *11363:9 *11363:8 0.5
2 *11363:8 *11363:7 0.1
3 *11363:7 *11363:6 0.25
4 *11363:6 *11363:5 15.2
5 *11363:4 *11363:3 0.1916667
6 *11363:5 *11363:4 0.25
7 *11363:2 *120:A2 0.08181819
8 *11363:3 *11363:2 0.5

*END

*D_NET *11364 0.8257464 //LENGTH 9.593 DR

*CONN
*I *129:Y O *L 0.000 *C 30.828 23.380
*I *124:A2 I *L 0.498 *C 36.968 25.964
*N *11364:2 *C 36.968 25.964
*N *11364:3 *C 36.908 25.904
*N *11364:4 *C 36.908 25.904
*N *11364:5 *C 30.676 25.904
*N *11364:6 *C 30.676 25.861
*N *11364:7 *C 30.616 23.380
*N *11364:8 *C 30.661 23.380

*CAP
0 *129:Y 0.02400128
1 *124:A2 0.001
2 *11364:2 0.01961109
3 *11364:3 0.01030126
4 *11364:4 0.2603258
5 *11364:5 0.2570509
6 *11364:6 0.1109137
7 *11364:7 0.1247672
8 *11364:8 0.01777508

*RES
0 *129:Y *11364:8 0.334
1 *11364:8 *11364:7 0.5
2 *11364:7 *11364:6 4.429465
3 *11364:6 *11364:5 0.25
4 *11364:5 *11364:4 11.12857
5 *11364:3 *11364:2 0.1
6 *11364:4 *11364:3 0.25
7 *11364:2 *124:A2 0.5

*END

*D_NET *11365 1.039075 //LENGTH 10.485 DR

*CONN
*I *109:Y O *L 0.000 *C 33.562 31.381
*I *124:A3 I *L 0.539 *C 37.424 25.356
*N *11365:2 *C 37.424 25.356
*N *11365:3 *C 37.364 30.725
*N *11365:4 *C 37.364 30.768
*N *11365:5 *C 33.564 30.768
*N *11365:6 *C 33.564 30.812
*N *11365:7 *C 33.504 31.436
*N *11365:8 *C 33.504 31.436

*CAP
0 *109:Y 0.0124544
1 *124:A3 0.001
2 *11365:2 0.27306
3 *11365:3 0.2587169
4 *11365:4 0.197174
5 *11365:5 0.1972204
6 *11365:6 0.04102781
7 *11365:7 0.05219287
8 *11365:8 0.0062282

*RES
0 *109:Y *11365:8 0.08181819
1 *11365:2 *124:A3 0.5
2 *11365:3 *11365:2 9.586608
3 *11365:4 *11365:3 0.25
4 *11365:6 *11365:5 0.25
5 *11365:5 *11365:4 6.785715
6 *11365:8 *11365:7 0.5
7 *11365:7 *11365:6 1.115179

*END

*D_NET *11366 1.12268 //LENGTH 11.827 DR

*CONN
*I *127:Y O *L 0.000 *C 38.124 23.380
*I *109:A1 I *L 0.541 *C 34.945 31.272
*N *11366:2 *C 34.945 31.259
*N *11366:3 *C 34.992 31.259
*N *11366:4 *C 34.932 31.115
*N *11366:5 *C 34.932 31.072
*N *11366:6 *C 37.972 31.072
*N *11366:7 *C 37.972 31.029
*N *11366:8 *C 37.912 23.380
*N *11366:9 *C 37.957 23.380

*CAP
0 *127:Y 0.02387838
1 *109:A1 0.01164572
2 *11366:2 0.005419528
3 *11366:3 0.02227333
4 *11366:4 0.0117309
5 *11366:5 0.1573421
6 *11366:6 0.1560605
7 *11366:7 0.3521081
8 *11366:8 0.3645688
9 *11366:9 0.01765219

*RES
0 *127:Y *11366:9 0.3340001
1 *11366:9 *11366:8 0.5
2 *11366:8 *11366:7 13.65804
3 *11366:7 *11366:6 0.25
4 *11366:6 *11366:5 5.428572
5 *11366:4 *11366:3 0.2408333
6 *11366:5 *11366:4 0.25
7 *11366:2 *109:A1 0.05128206
8 *11366:3 *11366:2 0.5

*END

*D_NET *11367 1.271041 //LENGTH 14.354 DR

*CONN
*I *138:Y O *L 0.000 *C 35.996 42.081
*I *109:A2 I *L 0.564 *C 34.780 31.005
*I *149:A I *L 0.588 *C 33.868 35.996
*N *11367:3 *C 33.868 35.936
*N *11367:4 *C 33.868 35.936
*N *11367:5 *C 34.780 31.049
*N *11367:6 *C 34.780 31.740
*N *11367:7 *C 34.628 31.740
*N *11367:8 *C 34.628 35.893
*N *11367:9 *C 34.628 35.936
*N *11367:10 *C 35.692 35.936
*N *11367:11 *C 35.692 35.980
*N *11367:12 *C 35.692 42.076
*N *11367:13 *C 36.025 42.076
*N *11367:14 *C 36.056 42.076

*CAP
0 *138:Y 0.01881479
1 *109:A2 0.001
2 *149:A 0.001
3 *11367:3 0.001
4 *11367:4 0.03521386
5 *11367:5 0.04785819
6 *11367:6 0.06483502
7 *11367:7 0.2025057
8 *11367:8 0.1851572
9 *11367:9 0.0777617
10 *11367:10 0.04567858
11 *11367:11 0.2677015
12 *11367:12 0.2954852
13 *11367:13 0.01444081
14 *11367:14 0.01258859

*RES
0 *138:Y *11367:14 0.1916667
1 *11367:8 *11367:7 7.415179
2 *11367:9 *11367:8 0.25
3 *11367:9 *11367:4 1.357143
4 *11367:5 *109:A2 0.5
5 *11367:11 *11367:10 0.25
6 *11367:10 *11367:9 1.9
7 *11367:14 *11367:13 0.5
8 *11367:13 *11367:12 0.5946429
9 *11367:3 *149:A 0.5
10 *11367:4 *11367:3 0.25
11 *11367:7 *11367:6 0.2714286
12 *11367:6 *11367:5 1.234822
13 *11367:12 *11367:11 10.88661

*END

*D_NET *11368 0.5682134 //LENGTH 7.258 DR

*CONN
*I *125:Y O *L 0.000 *C 32.196 35.632
*I *109:A4 I *L 0.661 *C 34.324 31.192
*N *11368:2 *C 34.324 31.192
*N *11368:3 *C 34.324 31.072
*N *11368:4 *C 34.324 31.072
*N *11368:5 *C 32.196 31.072
*N *11368:6 *C 32.196 31.116
*N *11368:7 *C 32.196 35.589

*CAP
0 *125:Y 0.001
1 *109:A4 0.001
2 *11368:2 0.01275285
3 *11368:3 0.01220917
4 *11368:4 0.09634271
5 *11368:5 0.0915819
6 *11368:6 0.1770829
7 *11368:7 0.1762439

*RES
0 *125:Y *11368:7 0.5
1 *11368:7 *11368:6 7.9875
2 *11368:6 *11368:5 0.25
3 *11368:5 *11368:4 3.8
4 *11368:3 *11368:2 0.1916667
5 *11368:4 *11368:3 0.25
6 *11368:2 *109:A4 0.5

*END

*D_NET *11369 0.127823 //LENGTH 1.035 DR

*CONN
*I *126:Y O *L 0.000 *C 31.436 37.212
*I *125:A2 I *L 0.510 *C 31.344 36.756
*N *11369:2 *C 31.344 36.756
*N *11369:3 *C 31.284 37.060
*N *11369:4 *C 31.436 37.060
*N *11369:5 *C 31.496 37.212
*N *11369:6 *C 31.496 37.212

*CAP
0 *126:Y 0.01453119
1 *125:A2 0.001
2 *11369:2 0.02333164
3 *11369:3 0.03122252
4 *11369:4 0.02567103
5 *11369:5 0.02376166
6 *11369:6 0.008304993

*RES
0 *126:Y *11369:6 0.1916667
1 *11369:6 *11369:5 0.5
2 *11369:5 *11369:4 0.2714286
3 *11369:2 *125:A2 0.5
4 *11369:3 *11369:2 0.5428572
5 *11369:4 *11369:3 0.2714286

*END

*D_NET *11370 0.3964976 //LENGTH 4.474 DR

*CONN
*I *140:Y O *L 0.000 *C 31.436 33.412
*I *147:A I *L 0.588 *C 32.652 34.476
*I *125:A3 I *L 0.583 *C 31.705 36.272
*N *11370:3 *C 31.740 36.209
*N *11370:4 *C 32.652 34.476
*N *11370:5 *C 32.652 34.536
*N *11370:6 *C 31.740 34.416
*N *11370:7 *C 31.740 34.416
*N *11370:8 *C 31.800 33.412
*N *11370:9 *C 31.755 33.412

*CAP
0 *140:Y 0.0339738
1 *147:A 0.001
2 *125:A3 0.001
3 *11370:3 0.07351297
4 *11370:4 0.001
5 *11370:5 0.04211985
6 *11370:6 0.04058164
7 *11370:7 0.1244446
8 *11370:8 0.05111711
9 *11370:9 0.0277476

*RES
0 *140:Y *11370:9 0.638
1 *11370:3 *125:A3 0.5
2 *11370:7 *11370:6 0.25
3 *11370:7 *11370:3 3.201786
4 *11370:6 *11370:5 1.628572
5 *11370:4 *147:A 0.5
6 *11370:5 *11370:4 0.25
7 *11370:9 *11370:8 0.5
8 *11370:8 *11370:7 1.792857

*END

*D_NET *11371 0.4826005 //LENGTH 4.732 DR

*CONN
*I *134:Y O *L 0.000 *C 39.796 37.060
*I *131:A1 I *L 0.552 *C 42.672 36.340
*N *11371:2 *C 42.624 36.300
*N *11371:3 *C 42.624 36.300
*N *11371:4 *C 42.684 36.360
*N *11371:5 *C 42.684 36.360
*N *11371:6 *C 39.644 36.240
*N *11371:7 *C 39.644 36.284
*N *11371:8 *C 39.644 37.047
*N *11371:9 *C 39.659 37.060

*CAP
0 *134:Y 0.01610696
1 *131:A1 0.01518283
2 *11371:2 0.008956631
3 *11371:3 0.01235367
4 *11371:4 0.01504572
5 *11371:5 0.1286917
6 *11371:6 0.1356082
7 *11371:7 0.065791
8 *11371:8 0.07083225
9 *11371:9 0.01403156

*RES
0 *134:Y *11371:9 0.274
1 *11371:9 *11371:8 1
2 *11371:8 *11371:7 1.3625
3 *11371:7 *11371:6 0.25
4 *11371:6 *11371:5 5.428572
5 *11371:4 *11371:3 0.1
6 *11371:5 *11371:4 0.25
7 *11371:2 *131:A1 0.08181819
8 *11371:3 *11371:2 0.5

*END

*D_NET *11372 0.4824443 //LENGTH 5.472 DR

*CONN
*I *132:Y O *L 0.000 *C 38.732 35.072
*I *131:A2 I *L 0.467 *C 42.522 36.036
*N *11372:2 *C 42.472 35.996
*N *11372:3 *C 42.472 35.996
*N *11372:4 *C 42.532 35.936
*N *11372:5 *C 42.532 35.936
*N *11372:6 *C 38.732 35.936
*N *11372:7 *C 38.732 35.893
*N *11372:8 *C 38.672 35.084
*N *11372:9 *C 38.672 35.084

*CAP
0 *132:Y 0.01883109
1 *131:A2 0.01494804
2 *11372:2 0.008721847
3 *11372:3 0.01311581
4 *11372:4 0.01787296
5 *11372:5 0.1581786
6 *11372:6 0.1616256
7 *11372:7 0.03356313
8 *11372:8 0.04298232
9 *11372:9 0.0126049

*RES
0 *132:Y *11372:9 0.08181819
1 *11372:9 *11372:8 0.5
2 *11372:8 *11372:7 1.44375
3 *11372:7 *11372:6 0.25
4 *11372:6 *11372:5 6.785715
5 *11372:4 *11372:3 0.1
6 *11372:5 *11372:4 0.25
7 *11372:2 *131:A2 0.08181819
8 *11372:3 *11372:2 0.5

*END

*D_NET *11373 0.8373873 //LENGTH 8.974 DR

*CONN
*I *152:Y O *L 0.000 *C 40.087 39.122
*I *108:SETB I *L 0.538 *C 45.420 35.996
*N *11373:2 *C 39.948 38.854
*N *11373:3 *C 45.420 36.040
*N *11373:4 *C 45.420 38.933
*N *11373:5 *C 45.420 38.976
*N *11373:6 *C 39.948 38.976
*N *11373:7 *C 39.948 38.976

*CAP
0 *152:Y 0.001
1 *108:SETB 0.001
2 *11373:2 0.0148361
3 *11373:3 0.1934784
4 *11373:4 0.1906509
5 *11373:5 0.2156532
6 *11373:6 0.2137479
7 *11373:7 0.007020921

*RES
0 *152:Y *11373:7 0.5
1 *11373:7 *11373:6 0.25
2 *11373:7 *11373:2 0.2033334
3 *11373:6 *11373:5 9.771429
4 *11373:4 *11373:3 5.166072
5 *11373:5 *11373:4 0.25
6 *11373:3 *108:SETB 0.5

*END

*D_NET *11374 0.4123661 //LENGTH 4.306 DR

*CONN
*I *157:Y O *L 0.000 *C 45.268 29.930
*I *107:SETB I *L 0.538 *C 44.508 32.663
*N *11374:2 *C 44.508 32.592
*N *11374:3 *C 44.508 32.549
*N *11374:4 *C 44.508 32.332
*N *11374:5 *C 44.508 32.288
*N *11374:6 *C 45.268 32.288
*N *11374:7 *C 45.268 32.245
*N *11374:8 *C 45.268 30.020
*N *11374:9 *C 45.268 29.976

*CAP
0 *157:Y 0.01713338
1 *107:SETB 0.0141209
2 *11374:2 0.007894707
3 *11374:3 0.01621506
4 *11374:4 0.01532461
5 *11374:5 0.03848665
6 *11374:6 0.04106565
7 *11374:7 0.1251637
8 *11374:8 0.1260542
9 *11374:9 0.01090718

*RES
0 *157:Y *11374:9 0.08181818
1 *11374:9 *11374:8 0.5
2 *11374:8 *11374:7 3.973214
3 *11374:7 *11374:6 0.25
4 *11374:6 *11374:5 1.357143
5 *11374:4 *11374:3 0.3875
6 *11374:5 *11374:4 0.25
7 *11374:2 *107:SETB 0.08181819
8 *11374:3 *11374:2 0.5

*END

*D_NET *28 14.32821 //LENGTH 173.749 DR

*CONN
*I *142:Y O *L 0.000 *C 52.564 43.292
*I *254:A3 I *L 0.468 *C 38.745 27.629
*I *124:A1 I *L 0.565 *C 37.167 26.168
*I *191:A1 I *L 0.978 *C 19.998 24.537
*P *27 O *L 0.020 *C 0.254 18.060
*P *28 O *L 0.020 *C 0.254 5.900
*I *170:A1 I *L 0.552 *C 23.228 22.964
*I *112:A3 I *L 0.539 *C 39.826 45.116
*I *249:A2 I *L 0.542 *C 20.492 71.300
*I *250:A2 I *L 0.542 *C 17.300 69.464
*I *252:A2 I *L 0.542 *C 16.236 54.580
*I *253:A2 I *L 0.542 *C 16.540 47.892
*I *251:A2 I *L 0.542 *C 16.844 62.776
*I *248:A2 I *L 0.542 *C 30.524 69.464
*I *247:A2 I *L 0.542 *C 36.148 67.956
*I *246:A2 I *L 0.542 *C 40.100 66.120
*N *28:16 *C 40.100 66.032
*N *28:17 *C 36.148 67.976
*N *28:18 *C 36.148 67.976
*N *28:19 *C 30.524 69.376
*N *28:20 *C 30.524 69.333
*N *28:21 *C 16.844 62.688
*N *28:22 *C 16.844 62.688
*N *28:23 *C 16.540 47.912
*N *28:24 *C 16.540 47.912
*N *28:25 *C 16.540 47.792
*N *28:26 *C 16.540 47.792
*N *28:27 *C 16.236 47.792
*N *28:28 *C 16.236 47.836
*N *28:29 *C 16.236 54.600
*N *28:30 *C 16.236 54.600
*N *28:31 *C 16.236 62.645
*N *28:32 *C 16.236 62.688
*N *28:33 *C 16.844 62.808
*N *28:34 *C 16.844 62.852
*N *28:35 *C 16.844 69.029
*N *28:36 *C 16.844 69.072
*N *28:37 *C 17.300 69.376
*N *28:38 *C 17.300 69.333
*N *28:39 *C 17.300 69.116
*N *28:40 *C 17.300 69.072
*N *28:41 *C 20.492 71.320
*N *28:42 *C 20.492 71.277
*N *28:43 *C 20.492 69.116
*N *28:44 *C 20.492 69.072
*N *28:45 *C 30.524 69.072
*N *28:46 *C 30.524 69.072
*N *28:47 *C 30.524 67.900
*N *28:48 *C 30.524 67.856
*N *28:49 *C 36.148 67.856
*N *28:50 *C 36.148 67.813
*N *28:51 *C 36.148 66.076
*N *28:52 *C 36.148 66.032
*N *28:53 *C 40.100 66.032
*N *28:54 *C 40.100 66.032
*N *28:55 *C 40.085 45.116
*N *28:56 *C 40.100 45.116
*N *28:57 *C 23.228 22.864
*N *28:58 *C 23.228 22.895
*N *28:59 *C 0.276 5.840
*N *28:60 *C 0.276 5.884
*N *28:61 *C 0.276 18.000
*N *28:62 *C 0.277 18.060
*N *28:63 *C 0.428 18.060
*N *28:64 *C 0.428 23.125
*N *28:65 *C 0.428 23.168
*N *28:66 *C 19.884 24.553
*N *28:67 *C 19.884 23.212
*N *28:68 *C 19.884 23.168
*N *28:69 *C 23.228 23.168
*N *28:70 *C 23.228 23.168
*N *28:71 *C 23.228 25.253
*N *28:72 *C 23.228 25.296
*N *28:73 *C 37.212 25.296
*N *28:74 *C 37.212 25.340
*N *28:75 *C 37.122 26.194
*N *28:76 *C 37.122 26.194
*N *28:77 *C 37.212 27.381
*N *28:78 *C 37.212 27.424
*N *28:79 *C 38.792 27.617
*N *28:80 *C 38.792 27.617
*N *28:81 *C 38.732 27.467
*N *28:82 *C 38.732 27.424
*N *28:83 *C 40.100 27.424
*N *28:84 *C 40.100 27.468
*N *28:85 *C 40.100 43.840
*N *28:86 *C 40.100 43.840
*N *28:87 *C 52.716 43.840
*N *28:88 *C 52.716 43.797
*N *28:89 *C 52.776 43.292
*N *28:90 *C 52.731 43.292

*CAP
0 *142:Y 0.018515
1 *254:A3 0.01530195
2 *124:A1 0.01901252
3 *191:A1 0.001
4 *27 0.008345754
5 *28 0.007116425
6 *170:A1 0.01571709
7 *112:A3 0.02456772
8 *249:A2 0.01506369
9 *250:A2 0.01392278
10 *252:A2 0.01303757
11 *253:A2 0.01498222
12 *251:A2 0.01523522
13 *248:A2 0.01383354
14 *247:A2 0.01469769
15 *246:A2 0.01396331
16 *28:16 0.007737119
17 *28:17 0.008471495
18 *28:18 0.01186476
19 *28:19 0.007607349
20 *28:20 0.01402797
21 *28:21 0.009009029
22 *28:22 0.01214693
23 *28:23 0.008756028
24 *28:24 0.01090706
25 *28:25 0.01002706
26 *28:26 0.01708713
27 *28:27 0.01708713
28 *28:28 0.2763608
29 *28:29 0.006811379
30 *28:30 0.592788
31 *28:31 0.302618
32 *28:32 0.0336128
33 *28:33 0.03225203
34 *28:34 0.2531165
35 *28:35 0.2412362
36 *28:36 0.02173999
37 *28:37 0.007696581
38 *28:38 0.0199124
39 *28:39 0.01902195
40 *28:40 0.1534396
41 *28:41 0.008837494
42 *28:42 0.1328218
43 *28:43 0.1319313
44 *28:44 0.5070301
45 *28:45 0.3737068
46 *28:46 0.09408214
47 *28:47 0.06801522
48 *28:48 0.2210248
49 *28:49 0.2208122
50 *28:50 0.1103388
51 *28:51 0.09858531
52 *28:52 0.1415967
53 *28:53 0.1416088
54 *28:54 1.051483
55 *28:55 0.02249232
56 *28:56 1.131364
57 *28:57 0.009490892
58 *28:58 0.01572845
59 *28:59 0.001
60 *28:60 0.4132695
61 *28:61 0.001229099
62 *28:62 0.4205184
63 *28:63 0.1970304
64 *28:64 0.1826648
65 *28:65 0.6042436
66 *28:66 0.06059916
67 *28:67 0.05929362
68 *28:68 0.7213838
69 *28:69 0.1189175
70 *28:70 0.1387037
71 *28:71 0.1107163
72 *28:72 0.6392311
73 *28:73 0.6422293
74 *28:74 0.04705372
75 *28:75 0.01278633
76 *28:76 0.1446002
77 *28:77 0.07401002
78 *28:78 0.06050094
79 *28:79 0.009075753
80 *28:80 0.01593097
81 *28:81 0.007811929
82 *28:82 0.1162819
83 *28:83 0.05927211
84 *28:84 0.7461002
85 *28:85 0.8289812
86 *28:86 0.5158089
87 *28:87 0.5133863
88 *28:88 0.02061332
89 *28:89 0.03208219
90 *28:90 0.01228881

*RES
0 *142:Y *28:90 0.472
1 *28:17 *247:A2 0.08181819
2 *28:18 *28:17 0.5
3 *28:43 *28:42 3.858929
4 *28:44 *28:43 0.25
5 *28:44 *28:40 5.700001
6 *28:41 *249:A2 0.08181819
7 *28:42 *28:41 0.5
8 *28:75 *124:A1 0.1916667
9 *28:76 *28:75 0.5
10 *28:76 *28:74 1.525893
11 *28:62 *28:61 0.25
12 *28:62 *28:60 21.74375
13 *28:61 *27 0.08181819
14 *28:85 *28:84 29.23661
15 *28:85 *28:56 2.278571
16 *28:86 *28:85 0.25
17 *28:88 *28:87 0.25
18 *28:87 *28:86 22.52857
19 *28:90 *28:89 0.5
20 *28:89 *28:88 0.9008929
21 *28:84 *28:83 0.25
22 *28:83 *28:82 2.442857
23 *28:60 *28:59 0.25
24 *28:59 *28 0.08181819
25 *28:35 *28:34 11.03036
26 *28:36 *28:35 0.25
27 *28:54 *28:53 0.25
28 *28:54 *28:16 0.5
29 *28:53 *28:52 7.057143
30 *28:51 *28:50 3.101786
31 *28:52 *28:51 0.25
32 *28:77 *28:76 2.11875
33 *28:78 *28:77 0.25
34 *28:46 *28:45 0.25
35 *28:46 *28:20 0.4651786
36 *28:45 *28:44 17.91429
37 *28:57 *170:A1 0.1916667
38 *28:58 *28:57 0.5
39 *28:70 *28:69 0.25
40 *28:70 *28:58 0.4875
41 *28:69 *28:68 5.971429
42 *28:81 *28:80 0.2508333
43 *28:82 *28:81 0.25
44 *28:82 *28:78 2.714286
45 *28:79 *254:A3 0.08181819
46 *28:80 *28:79 0.5
47 *28:29 *252:A2 0.08181818
48 *28:30 *28:29 0.5
49 *28:30 *28:28 12.07946
50 *28:50 *28:49 0.25
51 *28:50 *28:18 0.2641667
52 *28:49 *28:48 10.04286
53 *28:47 *28:46 2.09375
54 *28:48 *28:47 0.25
55 *28:39 *28:38 0.3875
56 *28:40 *28:39 0.25
57 *28:40 *28:36 0.8142858
58 *28:37 *250:A2 0.08181819
59 *28:38 *28:37 0.5
60 *28:19 *248:A2 0.08181819
61 *28:20 *28:19 0.5
62 *28:21 *251:A2 0.08181818
63 *28:22 *28:21 0.5
64 *28:28 *28:27 0.25
65 *28:27 *28:26 0.5428572
66 *28:25 *28:24 0.1916667
67 *28:26 *28:25 0.25
68 *28:23 *253:A2 0.1618182
69 *28:24 *28:23 0.5
70 *28:67 *28:66 2.394643
71 *28:68 *28:67 0.25
72 *28:68 *28:65 34.74286
73 *28:66 *191:A1 0.5
74 *28:34 *28:33 0.25
75 *28:34 *28:22 0.1916667
76 *28:33 *28:32 1.085714
77 *28:31 *28:30 14.36518
78 *28:32 *28:31 0.25
79 *28:16 *246:A2 0.08181819
80 *28:55 *112:A3 0.5180001
81 *28:56 *28:55 1
82 *28:56 *28:54 37.35
83 *28:64 *28:63 9.043752
84 *28:65 *28:64 0.25
85 *28:74 *28:73 0.25
86 *28:73 *28:72 24.97143
87 *28:71 *28:70 3.722322
88 *28:72 *28:71 0.25
89 *28:63 *28:62 0.2696429

*END

*D_NET *11375 0.3235084 //LENGTH 3.668 DR

*CONN
*I *144:Y O *L 0.000 *C 41.012 34.020
*I *114:A4 I *L 0.575 *C 42.380 32.525
*N *11375:2 *C 42.380 32.585
*N *11375:3 *C 42.380 32.629
*N *11375:4 *C 42.380 32.853
*N *11375:5 *C 42.380 32.896
*N *11375:6 *C 41.164 32.896
*N *11375:7 *C 41.164 32.940
*N *11375:8 *C 41.224 34.020
*N *11375:9 *C 41.179 34.020

*CAP
0 *144:Y 0.01788571
1 *114:A4 0.01827309
2 *11375:2 0.0120469
3 *11375:3 0.02255705
4 *11375:4 0.02166659
5 *11375:5 0.05596087
6 *11375:6 0.05846068
7 *11375:7 0.04591023
8 *11375:8 0.05908777
9 *11375:9 0.01165951

*RES
0 *144:Y *11375:9 0.3340001
1 *11375:9 *11375:8 0.5
2 *11375:8 *11375:7 1.929464
3 *11375:7 *11375:6 0.25
4 *11375:6 *11375:5 2.171429
5 *11375:4 *11375:3 0.4
6 *11375:5 *11375:4 0.25
7 *11375:2 *114:A4 0.08181819
8 *11375:3 *11375:2 0.5

*END

*D_NET *11376 0.6722848 //LENGTH 7.533 DR

*CONN
*I *150:Y O *L 0.000 *C 45.116 34.644
*I *118:A1 I *L 0.671 *C 47.244 39.492
*N *11376:2 *C 45.116 34.607
*N *11376:3 *C 47.244 39.479
*N *11376:4 *C 47.244 34.764
*N *11376:5 *C 47.244 34.720
*N *11376:6 *C 45.116 34.720
*N *11376:7 *C 45.116 34.682
*N *11376:8 *C 45.116 34.729

*CAP
0 *150:Y 0.01667026
1 *118:A1 0.001
2 *11376:2 0.01339198
3 *11376:3 0.2327048
4 *11376:4 0.229393
5 *11376:5 0.08308447
6 *11376:6 0.08459628
7 *11376:7 0.001
8 *11376:8 0.01044407

*RES
0 *150:Y *11376:8 0.08181819
1 *11376:8 *11376:7 0.5
2 *11376:7 *11376:6 0.25
3 *11376:7 *11376:2 0.125
4 *11376:6 *11376:5 3.8
5 *11376:4 *11376:3 8.419643
6 *11376:5 *11376:4 0.25
7 *11376:3 *118:A1 1

*END

*D_NET *11377 0.9243065 //LENGTH 9.837 DR

*CONN
*I *156:Y O *L 0.000 *C 36.564 39.172
*I *134:A2 I *L 0.558 *C 39.948 37.630
*I *137:A4 I *L 0.574 *C 36.300 34.504
*N *11377:3 *C 36.360 34.476
*N *11377:4 *C 36.360 34.476
*N *11377:5 *C 36.300 37.212
*N *11377:6 *C 39.948 37.587
*N *11377:7 *C 39.948 37.196
*N *11377:8 *C 39.948 37.152
*N *11377:9 *C 36.452 37.152
*N *11377:10 *C 36.452 37.226
*N *11377:11 *C 36.392 39.147
*N *11377:12 *C 36.435 39.147

*CAP
0 *156:Y 0.01731636
1 *134:A2 0.001
2 *137:A4 0.01625699
3 *11377:3 0.0100308
4 *11377:4 0.15238
5 *11377:5 0.1530255
6 *11377:6 0.05120856
7 *11377:7 0.0478968
8 *11377:8 0.1376796
9 *11377:9 0.1407115
10 *11377:10 0.09144554
11 *11377:11 0.09426457
12 *11377:12 0.01109017

*RES
0 *156:Y *11377:12 0.2158333
1 *11377:10 *11377:9 0.25
2 *11377:10 *11377:5 0.2714286
3 *11377:9 *11377:8 6.335715
4 *11377:7 *11377:6 0.6982144
5 *11377:8 *11377:7 0.25
6 *11377:6 *134:A2 0.5
7 *11377:12 *11377:11 0.5
8 *11377:11 *11377:10 3.43125
9 *11377:3 *137:A4 0.1916667
10 *11377:4 *11377:3 0.5
11 *11377:5 *11377:4 4.885715

*END

*D_NET *11378 0.858429 //LENGTH 8.705 DR

*CONN
*I *149:Y O *L 0.000 *C 34.020 36.512
*I *121:A1 I *L 0.671 *C 35.236 37.708
*I *137:A2 I *L 0.583 *C 35.996 34.516
*I *116:A1 I *L 0.617 *C 37.060 37.820
*N *11378:4 *C 37.060 37.807
*N *11378:5 *C 37.060 37.500
*N *11378:6 *C 37.060 37.456
*N *11378:7 *C 35.996 34.536
*N *11378:8 *C 35.996 34.580
*N *11378:9 *C 35.996 37.413
*N *11378:10 *C 35.996 37.456
*N *11378:11 *C 35.236 37.693
*N *11378:12 *C 35.236 37.680
*N *11378:13 *C 35.236 37.500
*N *11378:14 *C 35.236 37.456
*N *11378:15 *C 34.020 37.456
*N *11378:16 *C 34.020 37.413
*N *11378:17 *C 34.020 36.556

*CAP
0 *149:Y 0.001
1 *121:A1 0.0084508
2 *137:A2 0.01610678
3 *116:A1 0.001
4 *11378:4 0.02208341
5 *11378:5 0.01877165
6 *11378:6 0.05960996
7 *11378:7 0.009880579
8 *11378:8 0.1626759
9 *11378:9 0.1617854
10 *11378:10 0.09149645
11 *11378:11 0.006375401
12 *11378:12 0.02406455
13 *11378:13 0.01902329
14 *11378:14 0.09499723
15 *11378:15 0.06134181
16 *11378:16 0.04848651
17 *11378:17 0.05127918

*RES
0 *149:Y *11378:17 0.5
1 *11378:13 *11378:12 0.3214286
2 *11378:14 *11378:13 0.25
3 *11378:14 *11378:10 1.357143
4 *11378:11 *121:A1 0.02727273
5 *11378:12 *11378:11 1
6 *11378:16 *11378:15 0.25
7 *11378:15 *11378:14 2.171429
8 *11378:17 *11378:16 1.530357
9 *11378:9 *11378:8 5.058929
10 *11378:10 *11378:9 0.25
11 *11378:10 *11378:6 1.9
12 *11378:7 *137:A2 0.08181819
13 *11378:8 *11378:7 0.5
14 *11378:5 *11378:4 0.5482144
15 *11378:6 *11378:5 0.25
16 *11378:4 *116:A1 1

*END

*D_NET *11379 4.975886 //LENGTH 54.510 DR

*CONN
*I *110:Y O *L 0.000 *C 42.444 48.083
*I *181:A2 I *L 0.459 *C 36.908 46.056
*I *182:A2 I *L 0.492 *C 29.752 42.684
*I *185:A2 I *L 0.512 *C 26.784 44.204
*I *184:A1 I *L 0.603 *C 23.076 42.871
*I *186:A2 I *L 0.512 *C 19.216 42.988
*I *155:A I *L 0.588 *C 16.236 41.164
*I *179:A1 I *L 0.671 *C 31.914 40.973
*I *212:A1 I *L 0.548 *C 40.860 54.579
*I *207:A3 I *L 0.590 *C 43.596 52.858
*N *11379:10 *C 43.596 52.843
*N *11379:11 *C 43.596 52.857
*N *11379:12 *C 43.596 53.020
*N *11379:13 *C 40.860 54.600
*N *11379:14 *C 40.860 54.557
*N *11379:15 *C 40.860 53.004
*N *11379:16 *C 40.860 52.960
*N *11379:17 *C 43.292 52.960
*N *11379:18 *C 43.293 53.020
*N *11379:19 *C 31.914 40.973
*N *11379:20 *C 31.892 40.708
*N *11379:21 *C 32.804 40.708
*N *11379:22 *C 16.236 41.208
*N *11379:23 *C 16.236 42.277
*N *11379:24 *C 16.236 42.320
*N *11379:25 *C 19.216 42.988
*N *11379:26 *C 19.276 42.364
*N *11379:27 *C 19.276 42.320
*N *11379:28 *C 23.076 42.828
*N *11379:29 *C 23.076 42.364
*N *11379:30 *C 23.076 42.320
*N *11379:31 *C 26.784 44.204
*N *11379:32 *C 26.724 42.364
*N *11379:33 *C 26.724 42.320
*N *11379:34 *C 29.704 42.684
*N *11379:35 *C 29.704 42.684
*N *11379:36 *C 29.764 42.364
*N *11379:37 *C 29.764 42.320
*N *11379:38 *C 32.804 42.320
*N *11379:39 *C 32.804 42.320
*N *11379:40 *C 32.804 45.621
*N *11379:41 *C 32.804 45.664
*N *11379:42 *C 36.908 45.724
*N *11379:43 *C 36.908 45.846
*N *11379:44 *C 36.908 45.968
*N *11379:45 *C 36.908 45.968
*N *11379:46 *C 36.922 46.028
*N *11379:47 *C 43.292 46.088
*N *11379:48 *C 43.292 46.132
*N *11379:49 *C 43.292 47.488
*N *11379:50 *C 43.292 47.488
*N *11379:51 *C 42.380 47.488
*N *11379:52 *C 42.380 47.532
*N *11379:53 *C 42.320 48.029
*N *11379:54 *C 42.368 48.029

*CAP
0 *110:Y 0.01290685
1 *181:A2 0.014203
2 *182:A2 0.01660618
3 *185:A2 0.001
4 *184:A1 0.001
5 *186:A2 0.001
6 *155:A 0.001
7 *179:A1 0.001
8 *212:A1 0.01583251
9 *207:A3 0.00782832
10 *11379:10 0.005752922
11 *11379:11 0.01450706
12 *11379:12 0.03078821
13 *11379:13 0.009606316
14 *11379:14 0.136722
15 *11379:15 0.1358315
16 *11379:16 0.1147473
17 *11379:17 0.1122536
18 *11379:18 0.2675686
19 *11379:19 0.03271886
20 *11379:20 0.05947401
21 *11379:21 0.1166974
22 *11379:22 0.06743365
23 *11379:23 0.06498664
24 *11379:24 0.1097229
25 *11379:25 0.0536905
26 *11379:26 0.0426443
27 *11379:27 0.2710273
28 *11379:28 0.05185766
29 *11379:29 0.0485459
30 *11379:30 0.3246012
31 *11379:31 0.1126409
32 *11379:32 0.1000205
33 *11379:33 0.2972858
34 *11379:34 0.01037998
35 *11379:35 0.04318639
36 *11379:36 0.02904377
37 *11379:37 0.2633499
38 *11379:38 0.1278878
39 *11379:39 0.2597414
40 *11379:40 0.1767739
41 *11379:41 0.1691784
42 *11379:42 0.1774314
43 *11379:43 0.0113356
44 *11379:44 0.007976805
45 *11379:45 0.004145718
46 *11379:46 0.2355412
47 *11379:47 0.2345321
48 *11379:48 0.07984464
49 *11379:49 0.3464249
50 *11379:50 0.04513849
51 *11379:51 0.0423758
52 *11379:52 0.02155529
53 *11379:53 0.02985943
54 *11379:54 0.006680659

*RES
0 *110:Y *11379:54 0.03863636
1 *11379:19 *179:A1 0.5
2 *11379:10 *207:A3 0.02727273
3 *11379:11 *11379:10 1
4 *11379:48 *11379:47 0.25
5 *11379:47 *11379:46 11.37589
6 *11379:39 *11379:38 0.25
7 *11379:39 *11379:21 2.878572
8 *11379:38 *11379:37 5.428572
9 *11379:49 *11379:48 2.422322
10 *11379:49 *11379:18 9.878572
11 *11379:50 *11379:49 0.25
12 *11379:52 *11379:51 0.25
13 *11379:51 *11379:50 1.628572
14 *11379:54 *11379:53 0.5
15 *11379:53 *11379:52 0.8883929
16 *11379:18 *11379:17 0.25
17 *11379:18 *11379:12 0.5410715
18 *11379:17 *11379:16 4.342857
19 *11379:15 *11379:14 2.773214
20 *11379:16 *11379:15 0.25
21 *11379:13 *212:A1 0.08181817
22 *11379:14 *11379:13 0.5
23 *11379:26 *11379:25 1.115179
24 *11379:27 *11379:26 0.25
25 *11379:27 *11379:24 5.428572
26 *11379:25 *186:A2 0.5
27 *11379:32 *11379:31 3.286608
28 *11379:33 *11379:32 0.25
29 *11379:33 *11379:30 6.514286
30 *11379:31 *185:A2 0.5
31 *11379:29 *11379:28 0.8285714
32 *11379:30 *11379:29 0.25
33 *11379:30 *11379:27 6.785715
34 *11379:28 *184:A1 0.5
35 *11379:45 *11379:44 0.5
36 *11379:45 *11379:43 0.2033333
37 *11379:46 *11379:45 0.25
38 *11379:46 *11379:42 0.5428572
39 *11379:44 *181:A2 0.08181819
40 *11379:40 *11379:39 5.89375
41 *11379:41 *11379:40 0.25
42 *11379:23 *11379:22 1.908929
43 *11379:24 *11379:23 0.25
44 *11379:22 *155:A 0.5
45 *11379:36 *11379:35 0.5723215
46 *11379:37 *11379:36 0.25
47 *11379:37 *11379:33 5.428572
48 *11379:34 *182:A2 0.08181818
49 *11379:35 *11379:34 0.5
50 *11379:20 *11379:19 0.4732143
51 *11379:21 *11379:20 1.628572
52 *11379:12 *11379:11 0.3928572
53 *11379:42 *11379:41 7.328572

*END

*D_NET *11380 1.158457 //LENGTH 11.561 DR

*CONN
*I *147:Y O *L 0.000 *C 32.804 34.172
*I *139:A2 I *L 0.542 *C 34.020 32.680
*I *121:A2 I *L 0.583 *C 35.084 37.860
*I *116:A2 I *L 0.558 *C 37.234 37.685
*N *11380:4 *C 37.234 37.685
*N *11380:5 *C 37.212 37.838
*N *11380:6 *C 37.212 37.880
*N *11380:7 *C 35.084 37.880
*N *11380:8 *C 35.084 37.880
*N *11380:9 *C 35.084 37.880
*N *11380:10 *C 35.084 34.156
*N *11380:11 *C 35.084 34.112
*N *11380:12 *C 34.020 32.592
*N *11380:13 *C 34.020 32.636
*N *11380:14 *C 34.020 34.069
*N *11380:15 *C 34.020 34.112
*N *11380:16 *C 32.804 34.112
*N *11380:17 *C 32.804 34.112
*N *11380:18 *C 32.864 34.172
*N *11380:19 *C 32.864 34.172

*CAP
0 *147:Y 0.01360339
1 *139:A2 0.01566982
2 *121:A2 0.01602572
3 *116:A2 0.001
4 *11380:4 0.02967289
5 *11380:5 0.01232776
6 *11380:6 0.1140908
7 *11380:7 0.1113371
8 *11380:8 0.009799529
9 *11380:9 0.2260479
10 *11380:10 0.2252814
11 *11380:11 0.04367933
12 *11380:12 0.009443626
13 *11380:13 0.07973631
14 *11380:14 0.07884586
15 *11380:15 0.08993709
16 *11380:16 0.04882099
17 *11380:17 0.009282296
18 *11380:18 0.01647825
19 *11380:19 0.007377195

*RES
0 *147:Y *11380:19 0.1916667
1 *11380:8 *121:A2 0.08181819
2 *11380:9 *11380:8 0.5
3 *11380:9 *11380:7 0.25
4 *11380:7 *11380:6 3.8
5 *11380:5 *11380:4 0.2541667
6 *11380:6 *11380:5 0.25
7 *11380:4 *116:A2 0.5
8 *11380:10 *11380:9 6.650893
9 *11380:11 *11380:10 0.25
10 *11380:17 *11380:16 0.25
11 *11380:16 *11380:15 2.171429
12 *11380:19 *11380:18 0.5
13 *11380:18 *11380:17 0.1
14 *11380:14 *11380:13 2.558929
15 *11380:15 *11380:14 0.25
16 *11380:15 *11380:11 1.9
17 *11380:12 *139:A2 0.08181819
18 *11380:13 *11380:12 0.5

*END

*D_NET *11381 1.700094 //LENGTH 18.718 DR

*CONN
*I *148:Y O *L 0.000 *C 52.240 48.075
*I *122:A2 I *L 0.542 *C 50.132 49.400
*I *112:A1 I *L 0.540 *C 39.936 44.356
*N *11381:3 *C 39.888 44.356
*N *11381:4 *C 39.888 44.356
*N *11381:5 *C 39.948 48.053
*N *11381:6 *C 39.948 48.096
*N *11381:7 *C 47.092 48.156
*N *11381:8 *C 47.092 48.460
*N *11381:9 *C 50.132 49.312
*N *11381:10 *C 50.132 49.269
*N *11381:11 *C 50.132 48.444
*N *11381:12 *C 50.132 48.400
*N *11381:13 *C 52.108 48.400
*N *11381:14 *C 52.108 48.357
*N *11381:15 *C 52.108 48.029

*CAP
0 *148:Y 0.001
1 *122:A2 0.01301893
2 *112:A1 0.0137787
3 *11381:3 0.007552502
4 *11381:4 0.2357306
5 *11381:5 0.2242755
6 *11381:6 0.2709472
7 *11381:7 0.2835081
8 *11381:8 0.1624607
9 *11381:9 0.006792732
10 *11381:10 0.05586144
11 *11381:11 0.05497098
12 *11381:12 0.2410332
13 *11381:13 0.09317817
14 *11381:14 0.01841203
15 *11381:15 0.01757299

*RES
0 *148:Y *11381:15 0.5
1 *11381:11 *11381:10 1.473214
2 *11381:12 *11381:11 0.25
3 *11381:12 *11381:8 5.428571
4 *11381:9 *122:A2 0.08181819
5 *11381:10 *11381:9 0.5
6 *11381:14 *11381:13 0.25
7 *11381:13 *11381:12 3.528571
8 *11381:15 *11381:14 0.6366072
9 *11381:5 *11381:4 6.600893
10 *11381:6 *11381:5 0.25
11 *11381:3 *112:A1 0.08181819
12 *11381:4 *11381:3 0.5
13 *11381:7 *11381:6 12.75714
14 *11381:8 *11381:7 0.5428572

*END

*D_NET *11382 0.6877556 //LENGTH 7.131 DR

*CONN
*I *146:Y O *L 0.000 *C 46.008 44.731
*I *135:A1 I *L 0.603 *C 44.368 40.957
*I *133:A1 I *L 0.552 *C 43.592 44.244
*N *11382:3 *C 43.588 44.229
*N *11382:4 *C 43.588 44.229
*N *11382:5 *C 43.596 44.448
*N *11382:6 *C 43.596 44.448
*N *11382:7 *C 44.440 40.927
*N *11382:8 *C 44.440 40.927
*N *11382:9 *C 44.356 44.405
*N *11382:10 *C 44.356 44.448
*N *11382:11 *C 45.876 44.448
*N *11382:12 *C 45.876 44.448
*N *11382:13 *C 45.876 44.575
*N *11382:14 *C 45.876 44.575

*CAP
0 *146:Y 0.01696354
1 *135:A1 0.01817872
2 *133:A1 0.01727755
3 *11382:3 0.01105136
4 *11382:4 0.01542667
5 *11382:5 0.01519963
6 *11382:6 0.0425882
7 *11382:7 0.01195252
8 *11382:8 0.1672574
9 *11382:9 0.1536528
10 *11382:10 0.1109005
11 *11382:11 0.0752212
12 *11382:12 0.01022955
13 *11382:13 0.01111873
14 *11382:14 0.01073735

*RES
0 *146:Y *11382:14 0.08181819
1 *11382:12 *11382:11 0.25
2 *11382:11 *11382:10 2.714286
3 *11382:14 *11382:13 0.5
4 *11382:13 *11382:12 0.1916667
5 *11382:5 *11382:4 0.1916667
6 *11382:6 *11382:5 0.25
7 *11382:3 *133:A1 0.08181819
8 *11382:4 *11382:3 0.5
9 *11382:9 *11382:8 6.209822
10 *11382:10 *11382:9 0.25
11 *11382:10 *11382:6 1.357143
12 *11382:7 *135:A1 0.1916667
13 *11382:8 *11382:7 0.5

*END

*D_NET *11383 0.7423724 //LENGTH 8.012 DR

*CONN
*I *143:Y O *L 0.000 *C 53.172 38.018
*I *128:A1 I *L 0.552 *C 51.488 39.684
*I *142:A1 I *L 0.597 *C 51.757 42.686
*N *11383:3 *C 53.172 37.951
*N *11383:4 *C 51.757 42.686
*N *11383:5 *C 51.804 39.036
*N *11383:6 *C 51.440 39.644
*N *11383:7 *C 51.440 39.644
*N *11383:8 *C 51.500 39.036
*N *11383:9 *C 51.652 39.036
*N *11383:10 *C 51.652 38.108
*N *11383:11 *C 51.652 38.064
*N *11383:12 *C 53.172 38.064
*N *11383:13 *C 53.172 38.026
*N *11383:14 *C 53.172 38.073

*CAP
0 *143:Y 0.01625969
1 *128:A1 0.01490326
2 *142:A1 0.001
3 *11383:3 0.008988355
4 *11383:4 0.1598397
5 *11383:5 0.1655651
6 *11383:6 0.008677062
7 *11383:7 0.04197523
8 *11383:8 0.04582781
9 *11383:9 0.07840101
10 *11383:10 0.05718868
11 *11383:11 0.06683868
12 *11383:12 0.06587429
13 *11383:13 0.001
14 *11383:14 0.0100335

*RES
0 *143:Y *11383:14 0.08181819
1 *11383:10 *11383:9 1.658036
2 *11383:11 *11383:10 0.25
3 *11383:13 *11383:12 0.25
4 *11383:13 *11383:3 0.125
5 *11383:12 *11383:11 2.714286
6 *11383:14 *11383:13 0.5
7 *11383:4 *142:A1 0.5
8 *11383:6 *128:A1 0.08181819
9 *11383:7 *11383:6 0.5
10 *11383:8 *11383:7 1.085714
11 *11383:9 *11383:8 0.2714286
12 *11383:9 *11383:5 0.2714286
13 *11383:5 *11383:4 6.517858

*END

*D_NET *11384 0.5337911 //LENGTH 4.932 DR

*CONN
*I *151:Y O *L 0.000 *C 38.884 29.612
*I *115:A2 I *L 0.512 *C 38.276 32.985
*N *11384:2 *C 38.276 32.896
*N *11384:3 *C 38.276 32.853
*N *11384:4 *C 38.276 29.596
*N *11384:5 *C 38.276 29.552
*N *11384:6 *C 38.884 29.552
*N *11384:7 *C 38.884 29.552
*N *11384:8 *C 38.824 29.612
*N *11384:9 *C 38.824 29.612

*CAP
0 *151:Y 0.01361706
1 *115:A2 0.02031488
2 *11384:2 0.01408868
3 *11384:3 0.187286
4 *11384:4 0.1863955
5 *11384:5 0.03231464
6 *11384:6 0.03631664
7 *11384:7 0.01275446
8 *11384:8 0.02331235
9 *11384:9 0.007390861

*RES
0 *151:Y *11384:9 0.1916667
1 *11384:9 *11384:8 0.5
2 *11384:8 *11384:7 0.1
3 *11384:7 *11384:6 0.25
4 *11384:6 *11384:5 1.085714
5 *11384:4 *11384:3 5.816072
6 *11384:5 *11384:4 0.25
7 *11384:2 *115:A2 0.08181819
8 *11384:3 *11384:2 0.5

*END

*D_NET *11385 0.3339353 //LENGTH 3.581 DR

*CONN
*I *107:Q O *L 0.000 *C 48.425 32.956
*I *130:A1 I *L 0.552 *C 49.980 34.212
*N *11385:2 *C 49.980 34.232
*N *11385:3 *C 49.980 34.201
*N *11385:4 *C 49.980 32.940
*N *11385:5 *C 49.980 32.896
*N *11385:6 *C 48.485 32.896
*N *11385:7 *C 48.485 32.896
*N *11385:8 *C 48.425 32.956

*CAP
0 *107:Q 0.001
1 *130:A1 0.01756588
2 *11385:2 0.01133968
3 *11385:3 0.09179723
4 *11385:4 0.09090678
5 *11385:5 0.05244457
6 *11385:6 0.04857646
7 *11385:7 0.01234607
8 *11385:8 0.007958634

*RES
0 *107:Q *11385:8 0.5
1 *11385:2 *130:A1 0.1916667
2 *11385:3 *11385:2 0.5
3 *11385:4 *11385:3 2.252679
4 *11385:5 *11385:4 0.25
5 *11385:7 *11385:6 0.25
6 *11385:6 *11385:5 2.669643
7 *11385:8 *11385:7 0.1

*END

*D_NET *11386 0.2743389 //LENGTH 2.641 DR

*CONN
*I *108:Q O *L 0.000 *C 49.337 36.300
*I *136:A1 I *L 0.552 *C 50.710 36.325
*N *11386:2 *C 50.269 36.300
*N *11386:3 *C 50.224 36.300
*N *11386:4 *C 50.284 35.980
*N *11386:5 *C 50.284 35.936
*N *11386:6 *C 49.397 35.936
*N *11386:7 *C 49.397 35.980
*N *11386:8 *C 49.337 36.300

*CAP
0 *108:Q 0.001
1 *136:A1 0.03556339
2 *11386:2 0.02933719
3 *11386:3 0.03680506
4 *11386:4 0.02208185
5 *11386:5 0.0544083
6 *11386:6 0.05243205
7 *11386:7 0.01764136
8 *11386:8 0.02506968

*RES
0 *108:Q *11386:8 0.5
1 *11386:2 *136:A1 0.8820001
2 *11386:3 *11386:2 0.5
3 *11386:4 *11386:3 0.5723215
4 *11386:5 *11386:4 0.25
5 *11386:7 *11386:6 0.25
6 *11386:6 *11386:5 1.583929
7 *11386:8 *11386:7 0.5723215

*END

*D_NET *11387 2.131108 //LENGTH 21.759 DR

*CONN
*I *106:Q O *L 0.000 *C 49.694 40.975
*I *111:A1 I *L 0.552 *C 49.233 43.028
*I *135:A2 I *L 0.542 *C 44.508 41.204
*I *122:A1 I *L 0.603 *C 49.992 49.579
*I *119:A1 I *L 0.541 *C 51.361 46.028
*I *142:A2 I *L 0.609 *C 51.500 42.684
*N *11387:6 *C 51.500 42.642
*N *11387:7 *C 51.500 42.582
*N *11387:8 *C 51.500 42.624
*N *11387:9 *C 51.408 46.028
*N *11387:10 *C 51.365 46.028
*N *11387:11 *C 50.064 49.609
*N *11387:12 *C 50.064 49.609
*N *11387:13 *C 49.980 49.052
*N *11387:14 *C 49.980 49.008
*N *11387:15 *C 51.196 49.008
*N *11387:16 *C 51.196 48.965
*N *11387:17 *C 51.196 46.028
*N *11387:18 *C 51.196 42.668
*N *11387:19 *C 51.196 42.624
*N *11387:20 *C 50.132 42.744
*N *11387:21 *C 50.132 42.701
*N *11387:22 *C 50.132 41.452
*N *11387:23 *C 50.132 41.408
*N *11387:24 *C 44.508 41.224
*N *11387:25 *C 44.508 41.224
*N *11387:26 *C 44.508 41.408
*N *11387:27 *C 44.508 41.408
*N *11387:28 *C 49.280 42.988
*N *11387:29 *C 49.280 42.988
*N *11387:30 *C 49.220 41.452
*N *11387:31 *C 49.220 41.408
*N *11387:32 *C 49.676 41.408
*N *11387:33 *C 49.676 41.365
*N *11387:34 *C 49.676 40.951
*N *11387:35 *C 49.676 40.920

*CAP
0 *106:Q 0.01790579
1 *111:A1 0.01489403
2 *135:A2 0.01384633
3 *122:A1 0.01604752
4 *119:A1 0.01206556
5 *142:A2 0.001
6 *11387:6 0.008913485
7 *11387:7 0.005601728
8 *11387:8 0.01412941
9 *11387:9 0.005839364
10 *11387:10 0.006613446
11 *11387:11 0.009821322
12 *11387:12 0.06431673
13 *11387:13 0.0502524
14 *11387:14 0.05370924
15 *11387:15 0.05324984
16 *11387:16 0.171704
17 *11387:17 0.3539884
18 *11387:18 0.1552115
19 *11387:19 0.05781101
20 *11387:20 0.04586583
21 *11387:21 0.07579985
22 *11387:22 0.07579985
23 *11387:23 0.02614434
24 *11387:24 0.007620137
25 *11387:25 0.01321787
26 *11387:26 0.0122218
27 *11387:27 0.2204441
28 *11387:28 0.008667837
29 *11387:29 0.09586988
30 *11387:30 0.08682508
31 *11387:31 0.2387595
32 *11387:32 0.04522585
33 *11387:33 0.03957725
34 *11387:34 0.04046771
35 *11387:35 0.0116796

*RES
0 *106:Q *11387:35 0.1916667
1 *11387:33 *11387:32 0.25
2 *11387:32 *11387:31 0.8142857
3 *11387:32 *11387:23 0.8142857
4 *11387:35 *11387:34 0.5
5 *11387:34 *11387:33 0.7383929
6 *11387:22 *11387:21 2.230357
7 *11387:23 *11387:22 0.25
8 *11387:21 *11387:20 0.25
9 *11387:20 *11387:19 1.9
10 *11387:18 *11387:17 6.000893
11 *11387:19 *11387:18 0.25
12 *11387:19 *11387:8 0.5428572
13 *11387:26 *11387:25 0.1916667
14 *11387:27 *11387:26 0.25
15 *11387:24 *135:A2 0.08181819
16 *11387:25 *11387:24 0.5
17 *11387:16 *11387:15 0.25
18 *11387:15 *11387:14 2.178572
19 *11387:13 *11387:12 0.9955357
20 *11387:14 *11387:13 0.25
21 *11387:11 *122:A1 0.1916667
22 *11387:12 *11387:11 0.5
23 *11387:9 *119:A1 0.08181819
24 *11387:10 *11387:9 0.5
25 *11387:7 *11387:6 0.1
26 *11387:8 *11387:7 0.25
27 *11387:6 *142:A2 1
28 *11387:30 *11387:29 2.74375
29 *11387:31 *11387:30 0.25
30 *11387:31 *11387:27 8.414288
31 *11387:28 *111:A1 0.08181819
32 *11387:29 *11387:28 0.5
33 *11387:17 *11387:16 5.24375
34 *11387:17 *11387:10 0.3008929

*END

*D_NET *11388 0.6587551 //LENGTH 9.566 DR

*CONN
*I *169:Y O *L 0.000 *C 27.028 18.073
*I *197:A1 I *L 0.978 *C 35.784 17.883
*N *11388:2 *C 35.784 17.883
*N *11388:3 *C 35.844 18.000
*N *11388:4 *C 35.844 18.000
*N *11388:5 *C 27.028 18.000
*N *11388:6 *C 27.028 18.000
*N *11388:7 *C 27.028 18.120
*N *11388:8 *C 27.028 18.120

*CAP
0 *169:Y 0.01464954
1 *197:A1 0.001
2 *11388:2 0.009151707
3 *11388:3 0.009379257
4 *11388:4 0.2976199
5 *11388:5 0.2984404
6 *11388:6 0.009627363
7 *11388:7 0.01046358
8 *11388:8 0.008423341

*RES
0 *169:Y *11388:8 0.08181819
1 *11388:2 *197:A1 0.5
2 *11388:3 *11388:2 0.1
3 *11388:4 *11388:3 0.25
4 *11388:6 *11388:5 0.25
5 *11388:5 *11388:4 15.74286
6 *11388:8 *11388:7 0.5
7 *11388:7 *11388:6 0.1916667

*END

*D_NET *11389 0.8166309 //LENGTH 9.778 DR

*CONN
*I *170:Y O *L 0.000 *C 23.380 22.316
*I *193:A1 I *L 0.978 *C 26.968 19.099
*I *169:A1 I *L 0.610 *C 26.344 17.672
*N *11389:3 *C 26.256 17.629
*N *11389:4 *C 26.208 17.629
*N *11389:5 *C 26.968 19.099
*N *11389:6 *C 27.028 18.955
*N *11389:7 *C 27.028 18.912
*N *11389:8 *C 26.268 18.912
*N *11389:9 *C 26.268 18.869
*N *11389:10 *C 25.812 18.972
*N *11389:11 *C 25.812 22.213
*N *11389:12 *C 25.812 22.256
*N *11389:13 *C 23.380 22.256
*N *11389:14 *C 23.380 22.256
*N *11389:15 *C 23.320 22.316
*N *11389:16 *C 23.320 22.316

*CAP
0 *170:Y 0.0137499
1 *193:A1 0.001
2 *169:A1 0.01425017
3 *11389:3 0.008023974
4 *11389:4 0.067405
5 *11389:5 0.02144041
6 *11389:6 0.008448558
7 *11389:7 0.03676279
8 *11389:8 0.03676279
9 *11389:9 0.08247468
10 *11389:10 0.1730295
11 *11389:11 0.142362
12 *11389:12 0.09138599
13 *11389:13 0.09128987
14 *11389:14 0.007890533
15 *11389:15 0.01283116
16 *11389:16 0.007523704

*RES
0 *170:Y *11389:16 0.1916667
1 *11389:3 *169:A1 0.03863637
2 *11389:4 *11389:3 0.5
3 *11389:9 *11389:8 0.25
4 *11389:9 *11389:4 2.265179
5 *11389:8 *11389:7 1.357143
6 *11389:6 *11389:5 0.2408333
7 *11389:7 *11389:6 0.25
8 *11389:5 *193:A1 0.5
9 *11389:11 *11389:10 5.786608
10 *11389:12 *11389:11 0.25
11 *11389:14 *11389:13 0.25
12 *11389:13 *11389:12 4.342857
13 *11389:16 *11389:15 0.5
14 *11389:15 *11389:14 0.1
15 *11389:10 *11389:9 0.8142858

*END

*D_NET *11390 1.23997 //LENGTH 12.780 DR

*CONN
*I *172:Y O *L 0.000 *C 28.700 38.732
*I *171:A4 I *L 0.575 *C 27.636 34.603
*I *196:A1 I *L 0.552 *C 29.904 30.868
*N *11390:3 *C 29.856 30.828
*N *11390:4 *C 29.856 30.828
*N *11390:5 *C 29.916 34.172
*N *11390:6 *C 27.636 34.543
*N *11390:7 *C 27.636 34.500
*N *11390:8 *C 27.636 34.156
*N *11390:9 *C 27.636 34.112
*N *11390:10 *C 29.764 34.112
*N *11390:11 *C 29.764 34.172
*N *11390:12 *C 29.704 38.732
*N *11390:13 *C 29.659 38.732

*CAP
0 *172:Y 0.07707435
1 *171:A4 0.02015339
2 *196:A1 0.0148997
3 *11390:3 0.008673507
4 *11390:4 0.1598812
5 *11390:5 0.1663505
6 *11390:6 0.0139272
7 *11390:7 0.03628795
8 *11390:8 0.03539749
9 *11390:9 0.08844229
10 *11390:10 0.08723769
11 *11390:11 0.2269177
12 *11390:12 0.2338785
13 *11390:13 0.07084815

*RES
0 *172:Y *11390:13 1.918
1 *11390:11 *11390:10 0.25
2 *11390:11 *11390:5 0.2714286
3 *11390:10 *11390:9 3.8
4 *11390:8 *11390:7 0.6142858
5 *11390:9 *11390:8 0.25
6 *11390:6 *171:A4 0.08181819
7 *11390:7 *11390:6 0.5
8 *11390:13 *11390:12 0.5
9 *11390:12 *11390:11 8.142858
10 *11390:3 *196:A1 0.08181819
11 *11390:4 *11390:3 0.5
12 *11390:5 *11390:4 5.971429

*END

*D_NET *11391 1.112863 //LENGTH 11.487 DR

*CONN
*I *173:Y O *L 0.000 *C 20.188 33.048
*I *195:A3 I *L 0.539 *C 24.870 31.740
*I *171:A1 I *L 0.513 *C 27.940 34.476
*N *11391:3 *C 27.940 34.416
*N *11391:4 *C 27.940 34.416
*N *11391:5 *C 25.356 34.416
*N *11391:6 *C 25.356 34.373
*N *11391:7 *C 25.356 33.060
*N *11391:8 *C 25.356 33.016
*N *11391:9 *C 24.701 31.740
*N *11391:10 *C 24.656 31.740
*N *11391:11 *C 24.596 32.853
*N *11391:12 *C 24.596 32.896
*N *11391:13 *C 20.188 32.896
*N *11391:14 *C 20.188 32.896
*N *11391:15 *C 20.188 33.048

*CAP
0 *173:Y 0.001
1 *195:A3 0.02553062
2 *171:A1 0.001
3 *11391:3 0.001
4 *11391:4 0.1137449
5 *11391:5 0.1154814
6 *11391:6 0.09261319
7 *11391:7 0.09261319
8 *11391:8 0.03479142
9 *11391:9 0.01930442
10 *11391:10 0.1130827
11 *11391:11 0.0937318
12 *11391:12 0.2134559
13 *11391:13 0.1799308
14 *11391:14 0.008024739
15 *11391:15 0.007557914

*RES
0 *173:Y *11391:15 0.5
1 *11391:7 *11391:6 2.344643
2 *11391:8 *11391:7 0.25
3 *11391:6 *11391:5 0.25
4 *11391:5 *11391:4 4.614286
5 *11391:3 *171:A1 0.5
6 *11391:4 *11391:3 0.25
7 *11391:14 *11391:13 0.25
8 *11391:13 *11391:12 7.871429
9 *11391:15 *11391:14 0.1916667
10 *11391:11 *11391:10 1.986607
11 *11391:12 *11391:11 0.25
12 *11391:12 *11391:8 1.357143
13 *11391:9 *195:A3 0.338
14 *11391:10 *11391:9 0.5

*END

*D_NET *11392 0.7419015 //LENGTH 9.035 DR

*CONN
*I *176:Y O *L 0.000 *C 18.820 37.212
*I *173:A3 I *L 0.539 *C 20.584 32.044
*I *174:A1 I *L 0.513 *C 21.100 35.996
*N *11392:3 *C 21.058 35.996
*N *11392:4 *C 20.584 32.044
*N *11392:5 *C 20.644 31.984
*N *11392:6 *C 20.644 31.984
*N *11392:7 *C 20.948 31.984
*N *11392:8 *C 20.948 32.028
*N *11392:9 *C 20.948 35.996
*N *11392:10 *C 20.948 37.109
*N *11392:11 *C 20.948 37.152
*N *11392:12 *C 18.820 37.152
*N *11392:13 *C 18.820 37.152
*N *11392:14 *C 18.760 37.212
*N *11392:15 *C 18.760 37.212

*CAP
0 *176:Y 0.0139151
1 *173:A3 0.001
2 *174:A1 0.001
3 *11392:3 0.00736757
4 *11392:4 0.01766429
5 *11392:5 0.008784025
6 *11392:6 0.01671602
7 *11392:7 0.01844492
8 *11392:8 0.1734032
9 *11392:9 0.249688
10 *11392:10 0.0493224
11 *11392:11 0.07923337
12 *11392:12 0.07675031
13 *11392:13 0.007688584
14 *11392:14 0.0132348
15 *11392:15 0.007688901

*RES
0 *176:Y *11392:15 0.1916667
1 *11392:10 *11392:9 1.986607
2 *11392:11 *11392:10 0.25
3 *11392:13 *11392:12 0.25
4 *11392:12 *11392:11 3.8
5 *11392:15 *11392:14 0.5
6 *11392:14 *11392:13 0.1
7 *11392:3 *174:A1 0.5
8 *11392:8 *11392:7 0.25
9 *11392:7 *11392:6 0.5428572
10 *11392:5 *11392:4 0.1
11 *11392:6 *11392:5 0.25
12 *11392:4 *173:A3 0.5
13 *11392:9 *11392:8 7.135715
14 *11392:9 *11392:3 0.1825

*END

*D_NET *11393 0.5429808 //LENGTH 6.272 DR

*CONN
*I *175:Y O *L 0.000 *C 27.028 35.388
*I *174:A3 I *L 0.554 *C 21.616 35.388
*N *11393:2 *C 21.616 35.388
*N *11393:3 *C 21.556 35.328
*N *11393:4 *C 21.556 35.328
*N *11393:5 *C 27.028 35.328
*N *11393:6 *C 27.028 35.328
*N *11393:7 *C 26.968 35.388
*N *11393:8 *C 26.968 35.388

*CAP
0 *175:Y 0.0181201
1 *174:A3 0.001
2 *11393:2 0.02097847
3 *11393:3 0.01156265
4 *11393:4 0.2294696
5 *11393:5 0.2280361
6 *11393:6 0.008073773
7 *11393:7 0.01384629
8 *11393:8 0.0118939

*RES
0 *175:Y *11393:8 0.1916667
1 *11393:8 *11393:7 0.5
2 *11393:7 *11393:6 0.1
3 *11393:6 *11393:5 0.25
4 *11393:5 *11393:4 9.771429
5 *11393:3 *11393:2 0.09999999
6 *11393:4 *11393:3 0.25
7 *11393:2 *174:A3 0.5

*END

*D_NET *11394 1.796318 //LENGTH 20.117 DR

*CONN
*I *179:Y O *L 0.000 *C 31.705 41.224
*I *176:A1 I *L 0.513 *C 19.745 37.820
*I *177:A4 I *L 0.575 *C 18.364 41.291
*I *188:A I *L 0.588 *C 25.356 39.340
*N *11394:4 *C 25.356 39.384
*N *11394:5 *C 18.364 41.231
*N *11394:6 *C 18.364 41.188
*N *11394:7 *C 18.364 40.236
*N *11394:8 *C 18.364 40.192
*N *11394:9 *C 19.732 40.252
*N *11394:10 *C 19.792 37.820
*N *11394:11 *C 19.792 37.820
*N *11394:12 *C 19.732 39.845
*N *11394:13 *C 19.732 39.948
*N *11394:14 *C 25.356 39.888
*N *11394:15 *C 25.356 39.888
*N *11394:16 *C 25.356 41.061
*N *11394:17 *C 25.356 41.104
*N *11394:18 *C 31.705 41.104
*N *11394:19 *C 31.705 41.104
*N *11394:20 *C 31.705 41.224

*CAP
0 *179:Y 0.001
1 *176:A1 0.01460633
2 *177:A4 0.01759666
3 *188:A 0.001
4 *11394:4 0.02399019
5 *11394:5 0.01137047
6 *11394:6 0.081409
7 *11394:7 0.08051854
8 *11394:8 0.06419022
9 *11394:9 0.0785063
10 *11394:10 0.008380132
11 *11394:11 0.1322216
12 *11394:12 0.1221671
13 *11394:13 0.2390816
14 *11394:14 0.2309608
15 *11394:15 0.07769554
16 *11394:16 0.04255876
17 *11394:17 0.2715061
18 *11394:18 0.2682991
19 *11394:19 0.01416135
20 *11394:20 0.01509849

*RES
0 *179:Y *11394:20 0.5
1 *11394:12 *11394:11 3.892857
2 *11394:13 *11394:12 0.25
3 *11394:13 *11394:9 0.5428572
4 *11394:10 *176:A1 0.08181817
5 *11394:11 *11394:10 0.5
6 *11394:7 *11394:6 1.7
7 *11394:8 *11394:7 0.25
8 *11394:5 *177:A4 0.08181819
9 *11394:6 *11394:5 0.5
10 *11394:4 *188:A 0.5
11 *11394:16 *11394:15 2.09375
12 *11394:17 *11394:16 0.25
13 *11394:19 *11394:18 0.25
14 *11394:18 *11394:17 11.3375
15 *11394:20 *11394:19 0.08181818
16 *11394:15 *11394:14 0.25
17 *11394:15 *11394:4 0.9008929
18 *11394:14 *11394:13 10.04286
19 *11394:9 *11394:8 2.442857

*END

*D_NET *11395 0.6210871 //LENGTH 6.576 DR

*CONN
*I *178:Y O *L 0.000 *C 22.164 39.644
*I *177:A3 I *L 0.554 *C 18.576 41.772
*N *11395:2 *C 18.576 41.772
*N *11395:3 *C 18.516 39.628
*N *11395:4 *C 18.516 39.584
*N *11395:5 *C 22.164 39.584
*N *11395:6 *C 22.164 39.584
*N *11395:7 *C 22.104 39.644
*N *11395:8 *C 22.104 39.644

*CAP
0 *178:Y 0.01462954
1 *177:A3 0.001
2 *11395:2 0.1353318
3 *11395:3 0.1220881
4 *11395:4 0.1558475
5 *11395:5 0.1577515
6 *11395:6 0.009988034
7 *11395:7 0.01604733
8 *11395:8 0.008403341

*RES
0 *178:Y *11395:8 0.1916667
1 *11395:8 *11395:7 0.5
2 *11395:7 *11395:6 0.1
3 *11395:6 *11395:5 0.25
4 *11395:5 *11395:4 6.514286
5 *11395:3 *11395:2 3.829464
6 *11395:4 *11395:3 0.25
7 *11395:2 *177:A3 0.5

*END

*D_NET *11396 0.3929733 //LENGTH 4.090 DR

*CONN
*I *182:Y O *L 0.000 *C 30.676 43.434
*I *180:A1 I *L 0.540 *C 33.074 44.369
*N *11396:2 *C 32.956 44.416
*N *11396:3 *C 32.956 44.374
*N *11396:4 *C 32.956 44.187
*N *11396:5 *C 32.956 44.144
*N *11396:6 *C 30.676 44.144
*N *11396:7 *C 30.676 44.101
*N *11396:8 *C 30.736 43.444
*N *11396:9 *C 30.736 43.444

*CAP
0 *182:Y 0.01875435
1 *180:A1 0.01391948
2 *11396:2 0.02403878
3 *11396:3 0.03465243
4 *11396:4 0.03376197
5 *11396:5 0.09660681
6 *11396:6 0.09585509
7 *11396:7 0.02761158
8 *11396:8 0.03524469
9 *11396:9 0.01252815

*RES
0 *182:Y *11396:9 0.08181819
1 *11396:2 *180:A1 0.1388235
2 *11396:3 *11396:2 0.5
3 *11396:4 *11396:3 0.3116667
4 *11396:5 *11396:4 0.25
5 *11396:7 *11396:6 0.25
6 *11396:6 *11396:5 4.071428
7 *11396:9 *11396:8 0.5
8 *11396:8 *11396:7 1.172322

*END

*D_NET *11397 0.4360819 //LENGTH 4.430 DR

*CONN
*I *181:Y O *L 0.000 *C 36.300 45.420
*I *180:A3 I *L 0.539 *C 32.956 45.116
*N *11397:2 *C 32.956 45.074
*N *11397:3 *C 32.956 45.014
*N *11397:4 *C 32.956 45.056
*N *11397:5 *C 36.148 45.056
*N *11397:6 *C 36.148 45.100
*N *11397:7 *C 36.088 45.420
*N *11397:8 *C 36.133 45.420

*CAP
0 *181:Y 0.02387312
1 *180:A3 0.001
2 *11397:2 0.0164474
3 *11397:3 0.01313564
4 *11397:4 0.1598283
5 *11397:5 0.1579256
6 *11397:6 0.01655567
7 *11397:7 0.02966914
8 *11397:8 0.01764693

*RES
0 *181:Y *11397:8 0.3340001
1 *11397:8 *11397:7 0.5
2 *11397:7 *11397:6 0.5723215
3 *11397:6 *11397:5 0.25
4 *11397:5 *11397:4 5.7
5 *11397:3 *11397:2 0.1
6 *11397:4 *11397:3 0.25
7 *11397:2 *180:A3 1

*END

*D_NET *11398 0.6633227 //LENGTH 6.241 DR

*CONN
*I *185:Y O *L 0.000 *C 27.484 43.748
*I *182:A3 I *L 0.539 *C 30.280 42.076
*I *183:A1 I *L 0.513 *C 27.801 41.164
*N *11398:3 *C 27.848 41.164
*N *11398:4 *C 27.848 41.164
*N *11398:5 *C 30.280 42.076
*N *11398:6 *C 30.220 42.016
*N *11398:7 *C 30.220 42.016
*N *11398:8 *C 27.788 42.016
*N *11398:9 *C 27.788 41.973
*N *11398:10 *C 27.636 42.076
*N *11398:11 *C 27.696 43.748
*N *11398:12 *C 27.651 43.748

*CAP
0 *185:Y 0.02384818
1 *182:A3 0.001
2 *183:A1 0.01403378
3 *11398:3 0.007807588
4 *11398:4 0.05755361
5 *11398:5 0.02571627
6 *11398:6 0.01460875
7 *11398:7 0.1354342
8 *11398:8 0.1335419
9 *11398:9 0.05600734
10 *11398:10 0.0898734
11 *11398:11 0.08627571
12 *11398:12 0.01762198

*RES
0 *185:Y *11398:12 0.334
1 *11398:3 *183:A1 0.08181819
2 *11398:4 *11398:3 0.5
3 *11398:12 *11398:11 0.5
4 *11398:11 *11398:10 2.985714
5 *11398:9 *11398:8 0.25
6 *11398:9 *11398:4 1.44375
7 *11398:8 *11398:7 4.342857
8 *11398:6 *11398:5 0.1
9 *11398:7 *11398:6 0.25
10 *11398:5 *182:A3 0.5
11 *11398:10 *11398:9 0.2714286

*END

*D_NET *11399 0.5411463 //LENGTH 5.913 DR

*CONN
*I *184:Y O *L 0.000 *C 22.620 42.076
*I *183:A3 I *L 0.554 *C 27.240 41.772
*N *11399:2 *C 27.240 41.772
*N *11399:3 *C 27.180 41.712
*N *11399:4 *C 27.180 41.712
*N *11399:5 *C 22.468 41.712
*N *11399:6 *C 22.468 41.756
*N *11399:7 *C 22.408 42.076
*N *11399:8 *C 22.453 42.076

*CAP
0 *184:Y 0.02378845
1 *183:A3 0.001
2 *11399:2 0.02342556
3 *11399:3 0.01242871
4 *11399:4 0.1996503
5 *11399:5 0.1988794
6 *11399:6 0.02382002
7 *11399:7 0.04059163
8 *11399:8 0.01756226

*RES
0 *184:Y *11399:8 0.44
1 *11399:8 *11399:7 0.5
2 *11399:7 *11399:6 0.8500001
3 *11399:6 *11399:5 0.25
4 *11399:5 *11399:4 8.450001
5 *11399:3 *11399:2 0.2866667
6 *11399:4 *11399:3 0.25
7 *11399:2 *183:A3 0.5

*END

*D_NET *11400 0.4330808 //LENGTH 4.173 DR

*CONN
*I *187:Y O *L 0.000 *C 18.972 45.420
*I *186:A3 I *L 0.554 *C 18.912 42.076
*N *11400:2 *C 18.869 42.076
*N *11400:3 *C 18.668 42.076
*N *11400:4 *C 18.728 45.420
*N *11400:5 *C 18.773 45.420

*CAP
0 *187:Y 0.02637327
1 *186:A3 0.001
2 *11400:2 0.0134896
3 *11400:3 0.191774
4 *11400:4 0.1802969
5 *11400:5 0.02014707

*RES
0 *187:Y *11400:5 0.398
1 *11400:5 *11400:4 0.5
2 *11400:4 *11400:3 5.971428
3 *11400:2 *186:A3 0.5
4 *11400:3 *11400:2 0.3580357

*END

*D_NET *11401 0.2521285 //LENGTH 3.122 DR

*CONN
*I *161:QN O *L 0.000 *C 34.658 46.429
*I *181:A1 I *L 0.533 *C 36.756 46.332
*N *11401:2 *C 36.756 46.375
*N *11401:3 *C 36.756 46.534
*N *11401:4 *C 36.756 46.576
*N *11401:5 *C 34.628 46.576
*N *11401:6 *C 34.628 46.576
*N *11401:7 *C 34.688 46.484
*N *11401:8 *C 34.688 46.484

*CAP
0 *161:QN 0.01667477
1 *181:A1 0.001
2 *11401:2 0.01828005
3 *11401:3 0.0149683
4 *11401:4 0.08724371
5 *11401:5 0.08698858
6 *11401:6 0.007769939
7 *11401:7 0.008754601
8 *11401:8 0.01044857

*RES
0 *161:QN *11401:8 0.08181819
1 *11401:8 *11401:7 0.5
2 *11401:7 *11401:6 0.1
3 *11401:6 *11401:5 0.25
4 *11401:5 *11401:4 3.878572
5 *11401:3 *11401:2 0.265
6 *11401:4 *11401:3 0.25
7 *11401:2 *181:A1 0.5

*END

*D_NET *11402 0.8780268 //LENGTH 10.189 DR

*CONN
*I *163:QN O *L 0.000 *C 25.994 34.075
*I *331:A I *L 0.564 *C 22.924 32.652
*I *174:A4 I *L 0.575 *C 21.404 35.857
*N *11402:3 *C 21.404 35.904
*N *11402:4 *C 21.404 35.904
*N *11402:5 *C 21.404 35.752
*N *11402:6 *C 21.404 35.752
*N *11402:7 *C 22.012 35.632
*N *11402:8 *C 22.012 35.589
*N *11402:9 *C 22.924 32.696
*N *11402:10 *C 22.924 33.157
*N *11402:11 *C 22.924 33.200
*N *11402:12 *C 22.012 33.200
*N *11402:13 *C 22.012 33.244
*N *11402:14 *C 22.012 34.112
*N *11402:15 *C 22.012 34.112
*N *11402:16 *C 25.964 34.232
*N *11402:17 *C 25.964 34.189
*N *11402:18 *C 26.024 34.020
*N *11402:19 *C 26.024 34.020

*CAP
0 *163:QN 0.01270106
1 *331:A 0.001
2 *174:A4 0.01561589
3 *11402:3 0.009389699
4 *11402:4 0.01150695
5 *11402:5 0.01128014
6 *11402:6 0.0331973
7 *11402:7 0.03422652
8 *11402:8 0.06344594
9 *11402:9 0.02838767
10 *11402:10 0.02611361
11 *11402:11 0.05230052
12 *11402:12 0.05244752
13 *11402:13 0.04167992
14 *11402:14 0.1181675
15 *11402:15 0.1615263
16 *11402:16 0.1655069
17 *11402:17 0.01162904
18 *11402:18 0.02142948
19 *11402:19 0.006474862

*RES
0 *163:QN *11402:19 0.08181818
1 *11402:14 *11402:13 1.550893
2 *11402:14 *11402:8 2.636607
3 *11402:15 *11402:14 0.25
4 *11402:17 *11402:16 0.25
5 *11402:16 *11402:15 7.057143
6 *11402:19 *11402:18 0.5
7 *11402:18 *11402:17 0.3008929
8 *11402:13 *11402:12 0.25
9 *11402:12 *11402:11 1.628571
10 *11402:10 *11402:9 0.8232143
11 *11402:11 *11402:10 0.25
12 *11402:9 *331:A 0.5
13 *11402:8 *11402:7 0.25
14 *11402:7 *11402:6 1.085714
15 *11402:5 *11402:4 0.1916667
16 *11402:6 *11402:5 0.25
17 *11402:3 *174:A4 0.08181819
18 *11402:4 *11402:3 0.5

*END

*D_NET *11403 0.2940288 //LENGTH 3.255 DR

*CONN
*I *165:QN O *L 0.000 *C 33.412 26.722
*I *298:A I *L 0.424 *C 31.892 27.776
*N *11403:2 *C 31.892 27.728
*N *11403:3 *C 31.892 27.685
*N *11403:4 *C 31.892 26.724
*N *11403:5 *C 33.441 26.724
*N *11403:6 *C 33.472 26.724

*CAP
0 *165:QN 0.02214322
1 *298:A 0.01718362
2 *11403:2 0.01095742
3 *11403:3 0.04269569
4 *11403:4 0.1201399
5 *11403:5 0.06499185
6 *11403:6 0.01591703

*RES
0 *165:QN *11403:6 0.1916667
1 *11403:2 *298:A 0.08181819
2 *11403:3 *11403:2 0.5
3 *11403:6 *11403:5 0.5
4 *11403:5 *11403:4 2.766072
5 *11403:4 *11403:3 1.715179

*END

*D_NET *11404 0.3866613 //LENGTH 4.883 DR

*CONN
*I *168:QN O *L 0.000 *C 36.482 22.079
*I *197:A2 I *L 1.042 *C 36.148 17.756
*N *11404:2 *C 36.467 22.054
*N *11404:3 *C 36.148 17.756
*N *11404:4 *C 36.148 22.039
*N *11404:5 *C 36.317 22.039

*CAP
0 *168:QN 0.01115198
1 *197:A2 0.001
2 *11404:2 0.01850615
3 *11404:3 0.16798
4 *11404:4 0.1814245
5 *11404:5 0.006598644

*RES
0 *168:QN *11404:5 0.5
1 *168:QN *11404:2 0.05
2 *11404:3 *197:A2 0.5
3 *11404:5 *11404:4 0.3008929
4 *11404:4 *11404:3 7.648215

*END

*D_NET *11405 0.6821527 //LENGTH 8.241 DR

*CONN
*I *167:QN O *L 0.000 *C 29.527 22.028
*I *169:A2 I *L 0.699 *C 26.572 17.781
*I *193:A2 I *L 1.042 *C 27.272 19.276
*N *11405:3 *C 27.272 19.276
*N *11405:4 *C 26.572 17.825
*N *11405:5 *C 26.572 19.173
*N *11405:6 *C 26.572 19.216
*N *11405:7 *C 27.332 19.216
*N *11405:8 *C 27.332 19.290
*N *11405:9 *C 27.332 20.997
*N *11405:10 *C 27.332 21.040
*N *11405:11 *C 29.460 21.040
*N *11405:12 *C 29.460 21.084
*N *11405:13 *C 29.520 22.012
*N *11405:14 *C 29.520 22.012

*CAP
0 *167:QN 0.01966111
1 *169:A2 0.001
2 *193:A2 0.001
3 *11405:3 0.01229543
4 *11405:4 0.07178327
5 *11405:5 0.07065068
6 *11405:6 0.03710551
7 *11405:7 0.03430108
8 *11405:8 0.07282657
9 *11405:9 0.06369141
10 *11405:10 0.09896081
11 *11405:11 0.09933317
12 *11405:12 0.03727722
13 *11405:13 0.0488315
14 *11405:14 0.01343491

*RES
0 *167:QN *11405:14 0.1916667
1 *11405:3 *193:A2 0.5
2 *11405:8 *11405:7 0.25
3 *11405:8 *11405:3 0.1491667
4 *11405:7 *11405:6 1.357143
5 *11405:5 *11405:4 2.45625
6 *11405:6 *11405:5 0.25
7 *11405:4 *169:A2 0.5
8 *11405:9 *11405:8 3.048214
9 *11405:10 *11405:9 0.25
10 *11405:12 *11405:11 0.25
11 *11405:11 *11405:10 3.8
12 *11405:14 *11405:13 0.5
13 *11405:13 *11405:12 1.658036

*END

*D_NET *11406 0.7294977 //LENGTH 8.661 DR

*CONN
*I *197:Y O *L 0.000 *C 34.476 18.212
*I *294:A I *L 0.424 *C 32.804 24.432
*N *11406:2 *C 32.804 24.262
*N *11406:3 *C 32.804 24.384
*N *11406:4 *C 32.804 24.384
*N *11406:5 *C 32.804 24.384
*N *11406:6 *C 33.564 24.384
*N *11406:7 *C 33.564 24.341
*N *11406:8 *C 33.504 18.212
*N *11406:9 *C 33.549 18.212

*CAP
0 *197:Y 0.06810332
1 *294:A 0.01666667
2 *11406:2 0.009962816
3 *11406:3 0.01044048
4 *11406:4 0.003400488
5 *11406:5 0.03352866
6 *11406:6 0.03360952
7 *11406:7 0.2404255
8 *11406:8 0.2514832
9 *11406:9 0.06187712

*RES
0 *197:Y *11406:9 1.854
1 *11406:3 *294:A 0.08181819
2 *11406:4 *11406:3 0.5
3 *11406:4 *11406:2 0.2033333
4 *11406:5 *11406:4 0.25
5 *11406:7 *11406:6 0.25
6 *11406:6 *11406:5 1.421429
7 *11406:9 *11406:8 0.5
8 *11406:8 *11406:7 10.94375

*END

*D_NET *11407 0.5185046 //LENGTH 5.446 DR

*CONN
*I *193:Y O *L 0.000 *C 25.660 20.036
*I *297:A I *L 0.424 *C 25.934 24.444
*N *11407:2 *C 25.493 24.444
*N *11407:3 *C 25.448 24.444
*N *11407:4 *C 25.448 20.036
*N *11407:5 *C 25.493 20.036

*CAP
0 *193:Y 0.02357081
1 *297:A 0.03669139
2 *11407:2 0.03046519
3 *11407:3 0.2062078
4 *11407:4 0.2042249
5 *11407:5 0.01734461

*RES
0 *193:Y *11407:5 0.3340001
1 *11407:2 *297:A 0.8820001
2 *11407:3 *11407:2 0.5
3 *11407:5 *11407:4 0.5
4 *11407:4 *11407:3 7.871429

*END

*D_NET *11408 0.5711389 //LENGTH 6.417 DR

*CONN
*I *191:Y O *L 0.000 *C 21.252 24.900
*I *315:A I *L 0.564 *C 23.958 27.788
*N *11408:2 *C 23.517 27.788
*N *11408:3 *C 23.472 27.788
*N *11408:4 *C 23.532 25.036
*N *11408:5 *C 23.532 24.992
*N *11408:6 *C 21.252 24.992
*N *11408:7 *C 21.252 24.992
*N *11408:8 *C 21.312 24.900
*N *11408:9 *C 21.312 24.900

*CAP
0 *191:Y 0.01684337
1 *315:A 0.03129417
2 *11408:2 0.02506797
3 *11408:3 0.1406664
4 *11408:4 0.1292574
5 *11408:5 0.09892402
6 *11408:6 0.09633778
7 *11408:7 0.008348843
8 *11408:8 0.01378168
9 *11408:9 0.01061718

*RES
0 *191:Y *11408:9 0.1916667
1 *11408:2 *315:A 0.8820001
2 *11408:3 *11408:2 0.5
3 *11408:4 *11408:3 4.915179
4 *11408:5 *11408:4 0.25
5 *11408:7 *11408:6 0.25
6 *11408:6 *11408:5 4.071428
7 *11408:9 *11408:8 0.5
8 *11408:8 *11408:7 0.1533334

*END

*D_NET *11409 0.8630137 //LENGTH 7.603 DR

*CONN
*I *160:QN O *L 0.000 *C 30.068 45.447
*I *182:A1 I *L 0.540 *C 30.068 42.811
*I *183:A4 I *L 0.575 *C 27.484 41.304
*N *11409:3 *C 27.484 41.256
*N *11409:4 *C 27.484 41.256
*N *11409:5 *C 27.484 41.408
*N *11409:6 *C 27.484 41.408
*N *11409:7 *C 30.068 41.408
*N *11409:8 *C 30.068 41.452
*N *11409:9 *C 30.128 42.811
*N *11409:10 *C 30.128 42.811
*N *11409:11 *C 30.068 45.404

*CAP
0 *160:QN 0.001
1 *182:A1 0.01686792
2 *183:A4 0.01709166
3 *11409:3 0.01086546
4 *11409:4 0.01235425
5 *11409:5 0.01186676
6 *11409:6 0.1298438
7 *11409:7 0.1305702
8 *11409:8 0.08854306
9 *11409:9 0.01064173
10 *11409:10 0.2723118
11 *11409:11 0.161057

*RES
0 *160:QN *11409:11 0.5
1 *11409:9 *182:A1 0.1916667
2 *11409:10 *11409:9 0.5
3 *11409:10 *11409:8 2.427679
4 *11409:8 *11409:7 0.25
5 *11409:7 *11409:6 4.614286
6 *11409:5 *11409:4 0.1916667
7 *11409:6 *11409:5 0.25
8 *11409:3 *183:A4 0.08181819
9 *11409:4 *11409:3 0.5
10 *11409:11 *11409:10 4.629464

*END

*D_NET *11410 0.8880928 //LENGTH 10.160 DR

*CONN
*I *159:QN O *L 0.000 *C 24.930 44.107
*I *186:A1 I *L 0.513 *C 19.428 42.684
*I *185:A1 I *L 0.513 *C 26.632 44.508
*N *11410:3 *C 26.632 44.508
*N *11410:4 *C 26.572 44.188
*N *11410:5 *C 26.572 44.144
*N *11410:6 *C 19.428 42.744
*N *11410:7 *C 19.428 42.775
*N *11410:8 *C 19.428 44.101
*N *11410:9 *C 19.428 44.144
*N *11410:10 *C 24.900 44.264
*N *11410:11 *C 24.900 44.221
*N *11410:12 *C 24.960 44.052
*N *11410:13 *C 24.960 44.052

*CAP
0 *159:QN 0.01521993
1 *186:A1 0.01475493
2 *185:A1 0.001
3 *11410:3 0.04118842
4 *11410:4 0.02477526
5 *11410:5 0.07553276
6 *11410:6 0.008528734
7 *11410:7 0.0713644
8 *11410:8 0.07047394
9 *11410:9 0.2192742
10 *11410:10 0.296975
11 *11410:11 0.01380437
12 *11410:12 0.02620699
13 *11410:13 0.008993736

*RES
0 *159:QN *11410:13 0.08181819
1 *11410:11 *11410:10 0.25
2 *11410:10 *11410:9 9.771429
3 *11410:10 *11410:5 2.985715
4 *11410:13 *11410:12 0.5
5 *11410:12 *11410:11 0.3008929
6 *11410:8 *11410:7 2.366964
7 *11410:9 *11410:8 0.25
8 *11410:6 *186:A1 0.1916667
9 *11410:7 *11410:6 0.5
10 *11410:4 *11410:3 0.5723215
11 *11410:5 *11410:4 0.25
12 *11410:3 *185:A1 0.5

*END

*D_NET *11411 0.860257 //LENGTH 9.533 DR

*CONN
*I *164:QN O *L 0.000 *C 26.894 29.649
*I *327:A I *L 0.564 *C 26.268 31.132
*I *299:A I *L 0.424 *C 28.396 34.464
*N *11411:3 *C 28.396 34.416
*N *11411:4 *C 28.396 34.373
*N *11411:5 *C 28.396 34.172
*N *11411:6 *C 27.940 34.172
*N *11411:7 *C 27.940 29.900
*N *11411:8 *C 27.940 29.856
*N *11411:9 *C 26.268 31.089
*N *11411:10 *C 26.268 29.900
*N *11411:11 *C 26.268 29.856
*N *11411:12 *C 26.876 29.976
*N *11411:13 *C 26.876 29.933
*N *11411:14 *C 26.876 29.735
*N *11411:15 *C 26.876 29.704

*CAP
0 *164:QN 0.01910845
1 *327:A 0.001
2 *299:A 0.01725357
3 *11411:3 0.01102738
4 *11411:4 0.01236995
5 *11411:5 0.03979179
6 *11411:6 0.2048896
7 *11411:7 0.1765773
8 *11411:8 0.05493401
9 *11411:9 0.07231513
10 *11411:10 0.07004106
11 *11411:11 0.03455995
12 *11411:12 0.08306545
13 *11411:13 0.02477535
14 *11411:14 0.02566581
15 *11411:15 0.01288226

*RES
0 *164:QN *11411:15 0.1916667
1 *11411:13 *11411:12 0.25
2 *11411:12 *11411:11 1.085714
3 *11411:12 *11411:8 1.9
4 *11411:15 *11411:14 0.5
5 *11411:14 *11411:13 0.3526786
6 *11411:10 *11411:9 2.123214
7 *11411:11 *11411:10 0.25
8 *11411:9 *327:A 0.5
9 *11411:7 *11411:6 7.629465
10 *11411:8 *11411:7 0.25
11 *11411:3 *299:A 0.08181819
12 *11411:4 *11411:3 0.5
13 *11411:6 *11411:5 0.8142858
14 *11411:5 *11411:4 0.3580357

*END

*D_NET *11412 0.7409149 //LENGTH 7.457 DR

*CONN
*I *162:QN O *L 0.000 *C 25.234 37.419
*I *329:A I *L 0.564 *C 20.785 39.340
*N *11412:2 *C 20.627 39.340
*N *11412:3 *C 20.584 39.340
*N *11412:4 *C 20.644 38.412
*N *11412:5 *C 20.644 38.368
*N *11412:6 *C 25.204 38.368
*N *11412:7 *C 25.204 38.325
*N *11412:8 *C 25.264 37.364
*N *11412:9 *C 25.264 37.364

*CAP
0 *162:QN 0.01847219
1 *329:A 0.01884812
2 *11412:2 0.01262192
3 *11412:3 0.07715561
4 *11412:4 0.05987865
5 *11412:5 0.2150234
6 *11412:6 0.2144096
7 *11412:7 0.05146421
8 *11412:8 0.06079524
9 *11412:9 0.01224599

*RES
0 *162:QN *11412:9 0.08181819
1 *11412:2 *329:A 0.2633334
2 *11412:3 *11412:2 0.5
3 *11412:4 *11412:3 1.678572
4 *11412:5 *11412:4 0.25
5 *11412:7 *11412:6 0.25
6 *11412:6 *11412:5 8.142858
7 *11412:9 *11412:8 0.5
8 *11412:8 *11412:7 1.85

*END

*D_NET *11413 0.1894718 //LENGTH 2.137 DR

*CONN
*I *194:Y O *L 0.000 *C 30.220 27.180
*I *165:D I *L 0.547 *C 29.764 25.844
*N *11413:2 *C 29.764 25.888
*N *11413:3 *C 29.704 27.180
*N *11413:4 *C 29.749 27.180

*CAP
0 *194:Y 0.03401116
1 *165:D 0.001
2 *11413:2 0.05767916
3 *11413:3 0.06899648
4 *11413:4 0.02778496

*RES
0 *194:Y *11413:4 0.9420001
1 *11413:4 *11413:3 0.5
2 *11413:3 *11413:2 2.34375
3 *11413:2 *165:D 0.5

*END

*D_NET *11414 0.7463138 //LENGTH 8.855 DR

*CONN
*I *171:Y O *L 0.000 *C 27.028 33.721
*I *164:D I *L 0.547 *C 23.076 29.188
*N *11414:2 *C 23.076 29.188
*N *11414:3 *C 23.076 29.248
*N *11414:4 *C 27.028 29.248
*N *11414:5 *C 27.028 29.292
*N *11414:6 *C 26.968 33.716
*N *11414:7 *C 26.968 33.716

*CAP
0 *171:Y 0.01977081
1 *164:D 0.001
2 *11414:2 0.001
3 *11414:3 0.1561965
4 *11414:4 0.1554069
5 *11414:5 0.1959342
6 *11414:6 0.2034609
7 *11414:7 0.01354461

*RES
0 *171:Y *11414:7 0.08181819
1 *11414:7 *11414:6 0.5
2 *11414:6 *11414:5 7.900894
3 *11414:5 *11414:4 0.25
4 *11414:4 *11414:3 7.057143
5 *11414:2 *164:D 0.5
6 *11414:3 *11414:2 0.25

*END

*D_NET *11415 0.135392 //LENGTH 1.202 DR

*CONN
*I *174:Y O *L 0.000 *C 22.042 36.427
*I *280:A I *L 0.424 *C 22.468 36.009
*N *11415:2 *C 22.468 36.056
*N *11415:3 *C 22.468 36.100
*N *11415:4 *C 22.408 36.427
*N *11415:5 *C 22.363 36.427

*CAP
0 *174:Y 0.03274957
1 *280:A 0.01682382
2 *11415:2 0.01059762
3 *11415:3 0.01799102
4 *11415:4 0.03070654
5 *11415:5 0.02652338

*RES
0 *174:Y *11415:5 0.716
1 *11415:2 *280:A 0.08181819
2 *11415:3 *11415:2 0.5
3 *11415:5 *11415:4 0.5
4 *11415:4 *11415:3 0.5848215

*END

*D_NET *11416 0.5937749 //LENGTH 5.841 DR

*CONN
*I *177:Y O *L 0.000 *C 18.972 40.556
*I *162:D I *L 0.547 *C 21.374 37.972
*N *11416:2 *C 20.781 37.972
*N *11416:3 *C 20.736 37.972
*N *11416:4 *C 20.796 40.453
*N *11416:5 *C 20.796 40.496
*N *11416:6 *C 18.972 40.496
*N *11416:7 *C 18.972 40.496
*N *11416:8 *C 19.032 40.556
*N *11416:9 *C 19.032 40.556

*CAP
0 *177:Y 0.01744108
1 *162:D 0.04648461
2 *11416:2 0.04025842
3 *11416:3 0.1450218
4 *11416:4 0.1307431
5 *11416:5 0.08532643
6 *11416:6 0.08659343
7 *11416:7 0.01084687
8 *11416:8 0.01984422
9 *11416:9 0.01121489

*RES
0 *177:Y *11416:9 0.1916667
1 *11416:9 *11416:8 0.5
2 *11416:8 *11416:7 0.1
3 *11416:7 *11416:6 0.25
4 *11416:6 *11416:5 3.264286
5 *11416:4 *11416:3 4.429465
6 *11416:5 *11416:4 0.25
7 *11416:2 *162:D 1.186
8 *11416:3 *11416:2 0.5

*END

*D_NET *11417 0.4483827 //LENGTH 4.965 DR

*CONN
*I *180:Y O *L 0.000 *C 32.500 45.024
*I *319:A I *L 0.424 *C 30.980 47.840
*N *11417:2 *C 30.980 47.670
*N *11417:3 *C 30.980 47.792
*N *11417:4 *C 30.980 47.792
*N *11417:5 *C 30.980 47.792
*N *11417:6 *C 32.500 47.792
*N *11417:7 *C 32.500 47.749
*N *11417:8 *C 32.500 45.055

*CAP
0 *180:Y 0.001
1 *319:A 0.01909316
2 *11417:2 0.01126826
3 *11417:3 0.01286697
4 *11417:4 0.004407713
5 *11417:5 0.06269071
6 *11417:6 0.06232695
7 *11417:7 0.1373401
8 *11417:8 0.1373888

*RES
0 *180:Y *11417:8 0.5
1 *11417:3 *319:A 0.08181819
2 *11417:4 *11417:3 0.5
3 *11417:4 *11417:2 0.2033333
4 *11417:5 *11417:4 0.25
5 *11417:7 *11417:6 0.25
6 *11417:6 *11417:5 2.714286
7 *11417:8 *11417:7 4.809822

*END

*D_NET *11418 0.6919587 //LENGTH 7.305 DR

*CONN
*I *183:Y O *L 0.000 *C 26.876 41.620
*I *284:A I *L 0.424 *C 26.268 47.840
*N *11418:2 *C 26.268 47.792
*N *11418:3 *C 26.268 47.749
*N *11418:4 *C 26.208 41.620
*N *11418:5 *C 26.253 41.620

*CAP
0 *183:Y 0.0443048
1 *284:A 0.01559484
2 *11418:2 0.009368649
3 *11418:3 0.2864106
4 *11418:4 0.2982013
5 *11418:5 0.03807861

*RES
0 *183:Y *11418:5 1.246
1 *11418:2 *284:A 0.08181819
2 *11418:3 *11418:2 0.5
3 *11418:5 *11418:4 0.5
4 *11418:4 *11418:3 10.97947

*END

*D_NET *11419 0.6727079 //LENGTH 6.503 DR

*CONN
*I *186:Y O *L 0.000 *C 18.516 43.440
*I *285:A I *L 0.424 *C 21.860 45.993
*N *11419:2 *C 21.800 45.420
*N *11419:3 *C 21.800 45.420
*N *11419:4 *C 21.860 45.360
*N *11419:5 *C 21.860 45.360
*N *11419:6 *C 18.516 45.360
*N *11419:7 *C 18.516 45.317
*N *11419:8 *C 18.456 43.444
*N *11419:9 *C 18.456 43.444

*CAP
0 *186:Y 0.01937177
1 *285:A 0.03550245
2 *11419:2 0.03964292
3 *11419:3 0.01866433
4 *11419:4 0.01220172
5 *11419:5 0.160644
6 *11419:6 0.1541692
7 *11419:7 0.1043146
8 *11419:8 0.1150513
9 *11419:9 0.01314557

*RES
0 *186:Y *11419:9 0.08181819
1 *11419:2 *285:A 1.096
2 *11419:3 *11419:2 0.5
3 *11419:4 *11419:3 0.1
4 *11419:5 *11419:4 0.25
5 *11419:7 *11419:6 0.25
6 *11419:6 *11419:5 5.971429
7 *11419:9 *11419:8 0.5
8 *11419:8 *11419:7 3.34375

*END

*D_NET *11420 0.8065953 //LENGTH 8.923 DR

*CONN
*I *195:Y O *L 0.000 *C 25.660 30.372
*I *194:A1 I *L 0.548 *C 31.434 27.788
*N *11420:2 *C 31.434 27.788
*N *11420:3 *C 31.374 27.728
*N *11420:4 *C 31.374 27.728
*N *11420:5 *C 26.116 27.728
*N *11420:6 *C 26.116 27.772
*N *11420:7 *C 26.056 30.372
*N *11420:8 *C 26.011 30.372

*CAP
0 *195:Y 0.03585913
1 *194:A1 0.001
2 *11420:2 0.0212291
3 *11420:3 0.01216289
4 *11420:4 0.2232699
5 *11420:5 0.2224233
6 *11420:6 0.1228982
7 *11420:7 0.1381198
8 *11420:8 0.02963294

*RES
0 *195:Y *11420:8 0.7020001
1 *11420:8 *11420:7 0.5
2 *11420:7 *11420:6 4.69375
3 *11420:6 *11420:5 0.25
4 *11420:5 *11420:4 9.389287
5 *11420:3 *11420:2 0.1
6 *11420:4 *11420:3 0.25
7 *11420:2 *194:A1 0.5

*END

*D_NET *11421 0.3987093 //LENGTH 4.776 DR

*CONN
*I *196:Y O *L 0.000 *C 30.068 31.015
*I *194:A3 I *L 0.644 *C 30.904 27.603
*N *11421:2 *C 30.828 27.575
*N *11421:3 *C 30.828 30.725
*N *11421:4 *C 30.828 30.768
*N *11421:5 *C 30.068 30.768
*N *11421:6 *C 30.068 30.811
*N *11421:7 *C 30.068 30.973

*CAP
0 *196:Y 0.001
1 *194:A3 0.001
2 *11421:2 0.1343935
3 *11421:3 0.1343448
4 *11421:4 0.04392477
5 *11421:5 0.04558576
6 *11421:6 0.0196497
7 *11421:7 0.01881067

*RES
0 *196:Y *11421:7 0.5
1 *11421:7 *11421:6 0.27
2 *11421:6 *11421:5 0.25
3 *11421:5 *11421:4 1.357143
4 *11421:3 *11421:2 5.624107
5 *11421:4 *11421:3 0.25
6 *11421:2 *194:A3 0.5

*END

*D_NET *11422 2.164922 //LENGTH 22.276 DR

*CONN
*I *105:Y O *L 0.000 *C 31.436 57.428
*I *258:A2 I *L 0.558 *C 28.081 59.611
*I *256:A2 I *L 0.558 *C 26.876 56.252
*I *277:A1 I *L 0.540 *C 33.412 54.423
*I *276:A3 I *L 0.459 *C 33.564 51.223
*I *268:A1 I *L 0.548 *C 35.236 56.089
*N *11422:6 *C 35.236 55.878
*N *11422:7 *C 35.236 56.000
*N *11422:8 *C 35.236 56.000
*N *11422:9 *C 35.236 56.000
*N *11422:10 *C 33.564 51.014
*N *11422:11 *C 33.564 51.136
*N *11422:12 *C 33.564 51.136
*N *11422:13 *C 33.564 51.136
*N *11422:14 *C 33.108 51.136
*N *11422:15 *C 33.108 51.180
*N *11422:16 *C 33.412 54.381
*N *11422:17 *C 33.412 54.219
*N *11422:18 *C 33.412 54.176
*N *11422:19 *C 33.108 54.176
*N *11422:20 *C 33.108 54.176
*N *11422:21 *C 33.108 55.957
*N *11422:22 *C 33.108 56.060
*N *11422:23 *C 33.108 56.364
*N *11422:24 *C 31.284 56.364
*N *11422:25 *C 26.816 56.237
*N *11422:26 *C 26.816 56.237
*N *11422:27 *C 26.876 56.565
*N *11422:28 *C 26.876 56.608
*N *11422:29 *C 28.010 59.641
*N *11422:30 *C 28.010 59.641
*N *11422:31 *C 28.092 56.652
*N *11422:32 *C 28.092 56.608
*N *11422:33 *C 31.284 56.577
*N *11422:34 *C 31.284 56.652
*N *11422:35 *C 31.224 57.428
*N *11422:36 *C 31.269 57.428

*CAP
0 *105:Y 0.01774951
1 *258:A2 0.02236651
2 *256:A2 0.01709384
3 *277:A1 0.001
4 *276:A3 0.01526889
5 *268:A1 0.01479458
6 *11422:6 0.01084314
7 *11422:7 0.00856838
8 *11422:8 0.003643212
9 *11422:9 0.09259871
10 *11422:10 0.01368774
11 *11422:11 0.009042694
12 *11422:12 0.007032664
13 *11422:13 0.03028409
14 *11422:14 0.03034997
15 *11422:15 0.17768
16 *11422:16 0.02981595
17 *11422:17 0.0265042
18 *11422:18 0.0187518
19 *11422:19 0.0187518
20 *11422:20 0.2961739
21 *11422:21 0.1052082
22 *11422:22 0.09894455
23 *11422:23 0.08610743
24 *11422:24 0.08220619
25 *11422:25 0.01086765
26 *11422:26 0.03024946
27 *11422:27 0.01727816
28 *11422:28 0.05795517
29 *11422:29 0.01614032
30 *11422:30 0.1984899
31 *11422:31 0.1846509
32 *11422:32 0.1907426
33 *11422:33 0.1363687
34 *11422:34 0.03217738
35 *11422:35 0.04401052
36 *11422:36 0.01152332

*RES
0 *105:Y *11422:36 0.3340001
1 *11422:34 *11422:33 0.25
2 *11422:33 *11422:32 5.700001
3 *11422:33 *11422:24 0.3803572
4 *11422:36 *11422:35 0.5
5 *11422:35 *11422:34 1.386607
6 *11422:21 *11422:20 3.257143
7 *11422:22 *11422:21 0.25
8 *11422:22 *11422:9 3.8
9 *11422:20 *11422:19 0.25
10 *11422:20 *11422:15 5.350893
11 *11422:19 *11422:18 0.5428572
12 *11422:17 *11422:16 0.3025
13 *11422:18 *11422:17 0.25
14 *11422:16 *277:A1 0.5
15 *11422:15 *11422:14 0.25
16 *11422:14 *11422:13 0.8785715
17 *11422:12 *11422:11 0.5
18 *11422:12 *11422:10 0.2033333
19 *11422:13 *11422:12 0.25
20 *11422:11 *276:A3 0.08181819
21 *11422:8 *11422:7 0.5
22 *11422:8 *11422:6 0.2033333
23 *11422:9 *11422:8 0.25
24 *11422:7 *268:A1 0.08181819
25 *11422:27 *11422:26 0.5848215
26 *11422:28 *11422:27 0.25
27 *11422:25 *256:A2 0.1916667
28 *11422:26 *11422:25 0.5
29 *11422:31 *11422:30 5.338393
30 *11422:32 *11422:31 0.25
31 *11422:32 *11422:28 2.171429
32 *11422:29 *258:A2 0.1916666
33 *11422:30 *11422:29 0.5
34 *11422:24 *11422:23 3.257143
35 *11422:23 *11422:22 0.65

*END

*D_NET *11423 3.242544 //LENGTH 32.175 DR

*CONN
*I *188:Y O *L 0.000 *C 25.184 39.117
*I *175:A1 I *L 0.603 *C 27.484 36.177
*I *172:A3 I *L 0.459 *C 27.940 39.369
*I *176:A4 I *L 0.575 *C 19.428 37.947
*I *177:A2 I *L 0.512 *C 18.212 40.848
*I *173:A2 I *L 0.492 *C 21.130 32.652
*I *195:A2 I *L 0.498 *C 24.551 31.145
*N *11423:7 *C 24.596 31.192
*N *11423:8 *C 24.596 31.192
*N *11423:9 *C 24.596 31.072
*N *11423:10 *C 24.596 31.072
*N *11423:11 *C 24.917 31.132
*N *11423:12 *C 24.960 31.132
*N *11423:13 *C 21.299 32.652
*N *11423:14 *C 21.344 32.652
*N *11423:15 *C 21.404 32.332
*N *11423:16 *C 21.404 32.288
*N *11423:17 *C 24.900 32.288
*N *11423:18 *C 24.900 32.288
*N *11423:19 *C 24.900 38.124
*N *11423:20 *C 18.212 40.678
*N *11423:21 *C 18.212 40.800
*N *11423:22 *C 18.212 40.800
*N *11423:23 *C 18.212 40.800
*N *11423:24 *C 19.428 40.800
*N *11423:25 *C 19.428 40.757
*N *11423:26 *C 19.428 37.887
*N *11423:27 *C 19.428 37.887
*N *11423:28 *C 19.428 38.108
*N *11423:29 *C 19.428 38.064
*N *11423:30 *C 24.748 38.064
*N *11423:31 *C 24.748 38.124
*N *11423:32 *C 27.940 39.280
*N *11423:33 *C 27.940 39.237
*N *11423:34 *C 27.940 39.020
*N *11423:35 *C 27.940 38.976
*N *11423:36 *C 27.484 36.221
*N *11423:37 *C 27.484 39.053
*N *11423:38 *C 27.484 39.096
*N *11423:39 *C 24.748 38.976
*N *11423:40 *C 24.749 39.036
*N *11423:41 *C 25.051 39.036
*N *11423:42 *C 25.051 39.134

*CAP
0 *188:Y 0.001
1 *175:A1 0.001
2 *172:A3 0.01352755
3 *176:A4 0.01632305
4 *177:A2 0.01681906
5 *173:A2 0.02651208
6 *195:A2 0.01787638
7 *11423:7 0.01165018
8 *11423:8 0.01765263
9 *11423:9 0.01621147
10 *11423:10 0.02668609
11 *11423:11 0.01511457
12 *11423:12 0.0723177
13 *11423:13 0.02028589
14 *11423:14 0.03347548
15 *11423:15 0.01858121
16 *11423:16 0.1584363
17 *11423:17 0.1552836
18 *11423:18 0.3856281
19 *11423:19 0.3293172
20 *11423:20 0.0144143
21 *11423:21 0.01059286
22 *11423:22 0.008592367
23 *11423:23 0.06299913
24 *11423:24 0.06679034
25 *11423:25 0.2150078
26 *11423:26 0.01009685
27 *11423:27 0.01389064
28 *11423:28 0.2283999
29 *11423:29 0.235279
30 *11423:30 0.2357467
31 *11423:31 0.05741123
32 *11423:32 0.007301355
33 *11423:33 0.01992521
34 *11423:34 0.01903475
35 *11423:35 0.02709039
36 *11423:36 0.1668945
37 *11423:37 0.1635828
38 *11423:38 0.1237638
39 *11423:39 0.1016469
40 *11423:40 0.06324823
41 *11423:41 0.02989743
42 *11423:42 0.007239619

*RES
0 *188:Y *11423:42 0.5
1 *11423:26 *176:A4 0.08181819
2 *11423:27 *11423:26 0.5
3 *11423:18 *11423:17 0.25
4 *11423:18 *11423:12 2.064286
5 *11423:17 *11423:16 6.242858
6 *11423:15 *11423:14 0.5723215
7 *11423:16 *11423:15 0.25
8 *11423:13 *173:A2 0.338
9 *11423:14 *11423:13 0.5
10 *11423:42 *11423:41 0.1689655
11 *11423:40 *11423:39 0.25
12 *11423:40 *11423:31 1.628572
13 *11423:39 *11423:38 4.885715
14 *11423:28 *11423:27 0.1916667
15 *11423:28 *11423:25 4.730358
16 *11423:29 *11423:28 0.25
17 *11423:31 *11423:30 0.25
18 *11423:31 *11423:19 0.2714286
19 *11423:30 *11423:29 9.500001
20 *11423:12 *11423:11 0.25
21 *11423:11 *11423:10 0.5723214
22 *11423:9 *11423:8 0.1916667
23 *11423:10 *11423:9 0.25
24 *11423:7 *195:A2 0.08181819
25 *11423:8 *11423:7 0.5
26 *11423:25 *11423:24 0.25
27 *11423:24 *11423:23 2.171429
28 *11423:22 *11423:21 0.5
29 *11423:22 *11423:20 0.2033333
30 *11423:23 *11423:22 0.25
31 *11423:21 *177:A2 0.08181819
32 *11423:37 *11423:36 5.057143
33 *11423:38 *11423:37 0.25
34 *11423:38 *11423:35 0.8142858
35 *11423:36 *175:A1 0.5
36 *11423:34 *11423:33 0.3875
37 *11423:35 *11423:34 0.25
38 *11423:32 *172:A3 0.08181819
39 *11423:33 *11423:32 0.5
40 *11423:19 *11423:18 10.42143
41 *11423:41 *11423:40 0.5383929

*END

*D_NET *11424 2.818919 //LENGTH 28.964 DR

*CONN
*I *192:Y O *L 0.000 *C 36.128 44.731
*I *178:A1 I *L 0.603 *C 22.632 39.547
*I *176:A2 I *L 0.512 *C 19.593 37.516
*I *186:A4 I *L 0.575 *C 19.124 42.545
*I *185:A3 I *L 0.554 *C 27.088 45.116
*N *11424:5 *C 27.088 45.116
*N *11424:6 *C 19.124 42.502
*N *11424:7 *C 19.124 42.592
*N *11424:8 *C 19.124 42.566
*N *11424:9 *C 19.124 42.624
*N *11424:10 *C 19.640 37.516
*N *11424:11 *C 19.640 37.516
*N *11424:12 *C 19.580 42.581
*N *11424:13 *C 19.580 42.624
*N *11424:14 *C 22.704 39.577
*N *11424:15 *C 22.704 39.577
*N *11424:16 *C 22.620 42.581
*N *11424:17 *C 22.620 42.624
*N *11424:18 *C 27.028 42.624
*N *11424:19 *C 27.028 42.668
*N *11424:20 *C 27.028 44.752
*N *11424:21 *C 27.028 44.752
*N *11424:22 *C 35.996 44.752
*N *11424:23 *C 35.996 44.641

*CAP
0 *192:Y 0.001
1 *178:A1 0.0181948
2 *176:A2 0.01327066
3 *186:A4 0.0155661
4 *185:A3 0.001
5 *11424:5 0.03674535
6 *11424:6 0.01089865
7 *11424:7 0.009339908
8 *11424:8 0.001
9 *11424:9 0.02792314
10 *11424:10 0.00704447
11 *11424:11 0.3338935
12 *11424:12 0.32446
13 *11424:13 0.1524525
14 *11424:14 0.0119686
15 *11424:15 0.1712328
16 *11424:16 0.1545903
17 *11424:17 0.3378653
18 *11424:18 0.2146975
19 *11424:19 0.1022068
20 *11424:20 0.1344505
21 *11424:21 0.3670539
22 *11424:22 0.3710643
23 *11424:23 0.001

*RES
0 *192:Y *11424:23 0.5
1 *11424:16 *11424:15 5.363394
2 *11424:17 *11424:16 0.25
3 *11424:17 *11424:13 5.428572
4 *11424:14 *178:A1 0.1916667
5 *11424:15 *11424:14 0.5
6 *11424:12 *11424:11 9.043751
7 *11424:13 *11424:12 0.25
8 *11424:13 *11424:9 0.8142858
9 *11424:10 *176:A2 0.08181819
10 *11424:11 *11424:10 0.5
11 *11424:19 *11424:18 0.25
12 *11424:18 *11424:17 7.871429
13 *11424:5 *185:A3 0.5
14 *11424:20 *11424:19 3.722322
15 *11424:20 *11424:5 0.65
16 *11424:21 *11424:20 0.25
17 *11424:23 *11424:22 0.25
18 *11424:22 *11424:21 16.01429
19 *11424:8 *11424:7 0.5
20 *11424:8 *11424:6 0.1058333
21 *11424:9 *11424:8 0.25
22 *11424:7 *186:A4 0.08181819

*END

*D_NET *11425 1.039649 //LENGTH 10.535 DR

*CONN
*I *141:Y O *L 0.000 *C 39.036 49.245
*I *205:A3 I *L 0.590 *C 41.481 51.072
*I *212:A2 I *L 0.512 *C 40.708 54.275
*I *227:A4 I *L 0.574 *C 41.376 49.372
*N *11425:4 *C 41.376 49.372
*N *11425:5 *C 41.316 49.312
*N *11425:6 *C 41.316 49.312
*N *11425:7 *C 40.708 54.296
*N *11425:8 *C 40.708 54.253
*N *11425:9 *C 40.708 51.500
*N *11425:10 *C 41.528 51.019
*N *11425:11 *C 41.528 51.019
*N *11425:12 *C 41.468 51.397
*N *11425:13 *C 41.468 51.440
*N *11425:14 *C 40.556 51.440
*N *11425:15 *C 40.557 51.500
*N *11425:16 *C 40.556 49.356
*N *11425:17 *C 40.556 49.312
*N *11425:18 *C 39.036 49.312
*N *11425:19 *C 39.036 49.312
*N *11425:20 *C 39.096 49.245
*N *11425:21 *C 39.096 49.245

*CAP
0 *141:Y 0.01628751
1 *205:A3 0.01766873
2 *212:A2 0.01510941
3 *227:A4 0.001
4 *11425:4 0.01625284
5 *11425:5 0.009673413
6 *11425:6 0.0306884
7 *11425:7 0.008883211
8 *11425:8 0.1699715
9 *11425:9 0.1846733
10 *11425:10 0.01144253
11 *11425:11 0.03396398
12 *11425:12 0.02442922
13 *11425:13 0.04343722
14 *11425:14 0.04343722
15 *11425:15 0.1119228
16 *11425:16 0.1034471
17 *11425:17 0.09291928
18 *11425:18 0.06848862
19 *11425:19 0.009673491
20 *11425:20 0.01621845
21 *11425:21 0.01006131

*RES
0 *141:Y *11425:21 0.1916667
1 *11425:19 *11425:18 0.25
2 *11425:18 *11425:17 2.714286
3 *11425:21 *11425:20 0.5
4 *11425:20 *11425:19 0.1116667
5 *11425:16 *11425:15 3.829464
6 *11425:17 *11425:16 0.25
7 *11425:17 *11425:6 1.357143
8 *11425:7 *212:A2 0.08181819
9 *11425:8 *11425:7 0.5
10 *11425:5 *11425:4 0.09999999
11 *11425:6 *11425:5 0.25
12 *11425:4 *227:A4 0.5
13 *11425:15 *11425:14 0.25
14 *11425:15 *11425:9 0.2696429
15 *11425:14 *11425:13 1.628571
16 *11425:12 *11425:11 0.6741072
17 *11425:13 *11425:12 0.25
18 *11425:10 *205:A3 0.1472727
19 *11425:11 *11425:10 0.5
20 *11425:9 *11425:8 5.178572

*END

*D_NET *11426 0.8098139 //LENGTH 10.463 DR

*CONN
*I *205:Y O *L 0.000 *C 41.560 50.878
*I *202:A2 I *L 0.512 *C 44.041 57.580
*I *218:A I *L 0.588 *C 42.532 57.884
*N *11426:3 *C 42.532 57.841
*N *11426:4 *C 44.041 57.580
*N *11426:5 *C 43.981 57.520
*N *11426:6 *C 43.981 57.520
*N *11426:7 *C 42.532 57.520
*N *11426:8 *C 42.532 57.520
*N *11426:9 *C 42.532 51.180
*N *11426:10 *C 42.532 51.136
*N *11426:11 *C 41.620 51.196
*N *11426:12 *C 41.620 50.849
*N *11426:13 *C 41.620 50.818
*N *11426:14 *C 41.560 50.878

*CAP
0 *205:Y 0.001
1 *202:A2 0.001
2 *218:A 0.001
3 *11426:3 0.01601171
4 *11426:4 0.01258
5 *11426:5 0.01281032
6 *11426:6 0.05571352
7 *11426:7 0.05882866
8 *11426:8 0.2750696
9 *11426:9 0.2482132
10 *11426:10 0.03694197
11 *11426:11 0.05135613
12 *11426:12 0.009463258
13 *11426:13 0.01156857
14 *11426:14 0.0182569

*RES
0 *205:Y *11426:14 0.5
1 *11426:8 *11426:7 0.25
2 *11426:8 *11426:3 0.5723214
3 *11426:7 *11426:6 2.5875
4 *11426:5 *11426:4 0.09999999
5 *11426:6 *11426:5 0.25
6 *11426:4 *202:A2 0.5
7 *11426:3 *218:A 0.5
8 *11426:9 *11426:8 11.32232
9 *11426:10 *11426:9 0.25
10 *11426:13 *11426:12 0.25
11 *11426:12 *11426:11 0.6267857
12 *11426:14 *11426:13 0.1
13 *11426:11 *11426:10 1.664286

*END

*D_NET *11427 0.6145664 //LENGTH 6.598 DR

*CONN
*I *203:Y O *L 0.000 *C 49.372 57.513
*I *202:A4 I *L 0.575 *C 43.900 58.011
*N *11427:2 *C 43.900 57.829
*N *11427:3 *C 43.900 57.951
*N *11427:4 *C 43.900 57.905
*N *11427:5 *C 43.900 57.944
*N *11427:6 *C 49.372 57.944
*N *11427:7 *C 49.372 57.901
*N *11427:8 *C 49.372 57.557

*CAP
0 *203:Y 0.001
1 *202:A4 0.01618519
2 *11427:2 0.01237648
3 *11427:3 0.009958993
4 *11427:4 0.001
5 *11427:5 0.2543423
6 *11427:6 0.2558607
7 *11427:7 0.03234092
8 *11427:8 0.03150189

*RES
0 *203:Y *11427:8 0.5
1 *11427:8 *11427:7 0.6142858
2 *11427:7 *11427:6 0.25
3 *11427:6 *11427:5 9.771429
4 *11427:4 *11427:3 0.5
5 *11427:4 *11427:2 0.1266667
6 *11427:5 *11427:4 0.25
7 *11427:3 *202:A4 0.08181819

*END

*D_NET *11428 0.1956833 //LENGTH 1.740 DR

*CONN
*I *204:Y O *L 0.000 *C 50.740 58.201
*I *203:A4 I *L 0.575 *C 49.980 58.036
*N *11428:2 *C 49.980 57.976
*N *11428:3 *C 49.980 57.976
*N *11428:4 *C 49.980 58.128
*N *11428:5 *C 49.980 58.128
*N *11428:6 *C 50.740 58.128
*N *11428:7 *C 50.740 58.128
*N *11428:8 *C 50.740 58.248
*N *11428:9 *C 50.740 58.248

*CAP
0 *204:Y 0.01611009
1 *203:A4 0.01860768
2 *11428:2 0.01238149
3 *11428:3 0.02042967
4 *11428:4 0.01510138
5 *11428:5 0.04071418
6 *11428:6 0.04071418
7 *11428:7 0.01042513
8 *11428:8 0.01131559
9 *11428:9 0.009883892

*RES
0 *204:Y *11428:9 0.08181818
1 *11428:9 *11428:8 0.5
2 *11428:8 *11428:7 0.1916667
3 *11428:7 *11428:6 0.25
4 *11428:6 *11428:5 1.357143
5 *11428:4 *11428:3 0.1916667
6 *11428:5 *11428:4 0.25
7 *11428:2 *203:A4 0.1916667
8 *11428:3 *11428:2 0.5

*END

*D_NET *11429 0.9233542 //LENGTH 12.633 DR

*CONN
*I *220:Y O *L 0.000 *C 30.068 50.132
*I *205:A1 I *L 0.671 *C 41.164 51.044
*N *11429:2 *C 41.164 51.032
*N *11429:3 *C 41.164 50.875
*N *11429:4 *C 41.164 50.832
*N *11429:5 *C 30.220 50.832
*N *11429:6 *C 30.220 50.789
*N *11429:7 *C 30.280 50.132
*N *11429:8 *C 30.235 50.132

*CAP
0 *220:Y 0.02375329
1 *205:A1 0.001
2 *11429:2 0.02162535
3 *11429:3 0.01831359
4 *11429:4 0.3866892
5 *11429:5 0.3859736
6 *11429:6 0.02818739
7 *11429:7 0.04028473
8 *11429:8 0.01752709

*RES
0 *220:Y *11429:8 0.3340001
1 *11429:8 *11429:7 0.5
2 *11429:7 *11429:6 1.172322
3 *11429:6 *11429:5 0.25
4 *11429:5 *11429:4 19.54286
5 *11429:3 *11429:2 0.2616667
6 *11429:4 *11429:3 0.25
7 *11429:2 *205:A1 1

*END

*D_NET *11430 0.7310591 //LENGTH 6.616 DR

*CONN
*I *207:Y O *L 0.000 *C 44.052 53.476
*I *206:A2 I *L 0.512 *C 45.585 57.580
*I *214:A I *L 0.588 *C 45.724 56.060
*N *11430:3 *C 45.724 56.060
*N *11430:4 *C 45.632 57.580
*N *11430:5 *C 45.632 57.580
*N *11430:6 *C 45.572 56.060
*N *11430:7 *C 45.572 56.000
*N *11430:8 *C 44.204 56.000
*N *11430:9 *C 44.204 55.957
*N *11430:10 *C 44.204 53.460
*N *11430:11 *C 44.204 53.416

*CAP
0 *207:Y 0.01617627
1 *206:A2 0.01364065
2 *214:A 0.001
3 *11430:3 0.01002109
4 *11430:4 0.007414454
5 *11430:5 0.1068999
6 *11430:6 0.1038986
7 *11430:7 0.05730058
8 *11430:8 0.05636479
9 *11430:9 0.1642735
10 *11430:10 0.165164
11 *11430:11 0.02890518

*RES
0 *207:Y *11430:11 0.304
1 *11430:6 *11430:5 2.857143
2 *11430:6 *11430:3 0.2714286
3 *11430:7 *11430:6 0.25
4 *11430:9 *11430:8 0.25
5 *11430:8 *11430:7 2.442857
6 *11430:11 *11430:10 0.5
7 *11430:10 *11430:9 4.536607
8 *11430:4 *206:A2 0.08181819
9 *11430:5 *11430:4 0.5
10 *11430:3 *214:A 0.5

*END

*D_NET *11431 0.7800683 //LENGTH 8.356 DR

*CONN
*I *209:Y O *L 0.000 *C 43.292 56.820
*I *215:A I *L 0.588 *C 45.572 59.404
*I *208:A2 I *L 0.512 *C 47.396 59.708
*N *11431:3 *C 47.396 59.678
*N *11431:4 *C 47.396 59.617
*N *11431:5 *C 47.396 59.084
*N *11431:6 *C 47.396 59.040
*N *11431:7 *C 45.572 59.361
*N *11431:8 *C 45.572 59.084
*N *11431:9 *C 45.572 59.040
*N *11431:10 *C 43.444 59.040
*N *11431:11 *C 43.444 58.997
*N *11431:12 *C 43.504 56.820
*N *11431:13 *C 43.459 56.820

*CAP
0 *209:Y 0.02370688
1 *215:A 0.001
2 *208:A2 0.01064138
3 *11431:3 0.004415182
4 *11431:4 0.05715722
5 *11431:5 0.05626676
6 *11431:6 0.08089912
7 *11431:7 0.0251131
8 *11431:8 0.02266609
9 *11431:9 0.1684375
10 *11431:10 0.09293535
11 *11431:11 0.1035442
12 *11431:12 0.1158049
13 *11431:13 0.01748068

*RES
0 *209:Y *11431:13 0.3340001
1 *11431:8 *11431:7 0.4946429
2 *11431:9 *11431:8 0.25
3 *11431:9 *11431:6 3.257143
4 *11431:7 *215:A 0.5
5 *11431:5 *11431:4 0.9526787
6 *11431:6 *11431:5 0.25
7 *11431:3 *208:A2 0.04470588
8 *11431:4 *11431:3 0.5
9 *11431:11 *11431:10 0.25
10 *11431:10 *11431:9 3.8
11 *11431:13 *11431:12 0.5
12 *11431:12 *11431:11 3.886607

*END

*D_NET *11432 0.555837 //LENGTH 5.953 DR

*CONN
*I *212:Y O *L 0.000 *C 41.316 55.148
*I *209:A1 I *L 0.552 *C 43.128 56.404
*I *211:A1 I *L 0.552 *C 43.870 54.261
*N *11432:3 *C 43.581 54.236
*N *11432:4 *C 43.536 54.236
*N *11432:5 *C 43.596 55.148
*N *11432:6 *C 43.080 56.364
*N *11432:7 *C 43.080 56.364
*N *11432:8 *C 43.140 55.148
*N *11432:9 *C 43.140 55.088
*N *11432:10 *C 41.316 55.088
*N *11432:11 *C 41.316 55.088
*N *11432:12 *C 41.376 55.148
*N *11432:13 *C 41.376 55.148

*CAP
0 *212:Y 0.0184571
1 *209:A1 0.01312111
2 *211:A1 0.03136984
3 *11432:3 0.02514365
4 *11432:4 0.06260977
5 *11432:5 0.07361827
6 *11432:6 0.00689492
7 *11432:7 0.06310234
8 *11432:8 0.07701004
9 *11432:9 0.07280834
10 *11432:10 0.07305329
11 *11432:11 0.009726468
12 *11432:12 0.01669097
13 *11432:13 0.01223091

*RES
0 *212:Y *11432:13 0.1916667
1 *11432:8 *11432:7 2.171429
2 *11432:8 *11432:5 0.8142858
3 *11432:9 *11432:8 0.25
4 *11432:11 *11432:10 0.25
5 *11432:10 *11432:9 3.257143
6 *11432:13 *11432:12 0.5
7 *11432:12 *11432:11 0.1
8 *11432:6 *209:A1 0.08181819
9 *11432:7 *11432:6 0.5
10 *11432:3 *211:A1 0.578
11 *11432:4 *11432:3 0.5
12 *11432:5 *11432:4 1.628572

*END

*D_NET *11433 1.066353 //LENGTH 12.204 DR

*CONN
*I *211:Y O *L 0.000 *C 44.092 54.363
*I *210:A2 I *L 0.512 *C 47.852 50.880
*I *213:A I *L 0.588 *C 51.196 51.196
*N *11433:3 *C 51.196 51.153
*N *11433:4 *C 51.196 50.876
*N *11433:5 *C 51.196 50.832
*N *11433:6 *C 47.852 50.832
*N *11433:7 *C 47.852 50.832
*N *11433:8 *C 47.852 50.832
*N *11433:9 *C 47.852 54.133
*N *11433:10 *C 47.852 54.176
*N *11433:11 *C 44.508 54.176
*N *11433:12 *C 44.508 54.219
*N *11433:13 *C 44.568 54.363
*N *11433:14 *C 44.523 54.363

*CAP
0 *211:Y 0.04212216
1 *210:A2 0.01546166
2 *213:A 0.001
3 *11433:3 0.0288039
4 *11433:4 0.02635689
5 *11433:5 0.141239
6 *11433:6 0.1415297
7 *11433:7 0.009235464
8 *11433:8 0.1550054
9 *11433:9 0.1543014
10 *11433:10 0.1347914
11 *11433:11 0.1349732
12 *11433:12 0.01439746
13 *11433:13 0.03123967
14 *11433:14 0.03589597

*RES
0 *211:Y *11433:14 0.8620001
1 *11433:7 *210:A2 0.08181819
2 *11433:8 *11433:7 0.5
3 *11433:8 *11433:6 0.25
4 *11433:9 *11433:8 5.89375
5 *11433:10 *11433:9 0.25
6 *11433:12 *11433:11 0.25
7 *11433:11 *11433:10 5.971429
8 *11433:14 *11433:13 0.5
9 *11433:13 *11433:12 0.3025
10 *11433:6 *11433:5 5.978572
11 *11433:4 *11433:3 0.5794643
12 *11433:5 *11433:4 0.25
13 *11433:3 *213:A 0.5

*END

*D_NET *11434 0.7623072 //LENGTH 8.709 DR

*CONN
*I *202:Y O *L 0.000 *C 43.292 58.400
*I *328:A I *L 0.564 *C 43.444 64.572
*N *11434:2 *C 43.444 64.572
*N *11434:3 *C 42.228 64.572
*N *11434:4 *C 42.228 58.340
*N *11434:5 *C 43.292 58.400

*CAP
0 *202:Y 0.001
1 *328:A 0.001
2 *11434:2 0.05321368
3 *11434:3 0.3317926
4 *11434:4 0.3245881
5 *11434:5 0.05071284

*RES
0 *202:Y *11434:5 0.5
1 *11434:2 *328:A 0.5
2 *11434:5 *11434:4 1.9
3 *11434:4 *11434:3 11.12857
4 *11434:3 *11434:2 2.171429

*END

*D_NET *11435 0.3856683 //LENGTH 4.363 DR

*CONN
*I *206:Y O *L 0.000 *C 44.812 58.400
*I *200:D I *L 0.547 *C 45.572 61.313
*N *11435:2 *C 45.512 61.288
*N *11435:3 *C 45.512 61.288
*N *11435:4 *C 45.572 60.908
*N *11435:5 *C 45.572 60.864
*N *11435:6 *C 44.812 60.864
*N *11435:7 *C 44.812 60.821
*N *11435:8 *C 44.812 58.431

*CAP
0 *206:Y 0.001
1 *200:D 0.01774256
2 *11435:2 0.01151637
3 *11435:3 0.03359096
4 *11435:4 0.01996719
5 *11435:5 0.04126663
6 *11435:6 0.04079402
7 *11435:7 0.109871
8 *11435:8 0.1099196

*RES
0 *206:Y *11435:8 0.5
1 *11435:8 *11435:7 4.266964
2 *11435:7 *11435:6 0.25
3 *11435:6 *11435:5 1.378572
4 *11435:4 *11435:3 0.8714286
5 *11435:5 *11435:4 0.25
6 *11435:2 *200:D 0.1916667
7 *11435:3 *11435:2 0.5

*END

*D_NET *11436 0.3642925 //LENGTH 3.713 DR

*CONN
*I *208:Y O *L 0.000 *C 46.636 60.164
*I *199:D I *L 0.547 *C 46.472 62.596
*N *11436:2 *C 46.424 62.596
*N *11436:3 *C 46.381 62.596
*N *11436:4 *C 46.180 62.596
*N *11436:5 *C 46.120 60.164
*N *11436:6 *C 46.165 60.164

*CAP
0 *208:Y 0.04427781
1 *199:D 0.01601418
2 *11436:2 0.00978798
3 *11436:3 0.009768385
4 *11436:4 0.1281385
5 *11436:5 0.1182539
6 *11436:6 0.03805162

*RES
0 *208:Y *11436:6 0.9420002
1 *11436:6 *11436:5 0.5
2 *11436:5 *11436:4 4.342857
3 *11436:2 *199:D 0.1036364
4 *11436:3 *11436:2 0.5
5 *11436:4 *11436:3 0.3928572

*END

*D_NET *11437 0.4643228 //LENGTH 5.650 DR

*CONN
*I *210:Y O *L 0.000 *C 47.092 50.892
*I *198:D I *L 0.547 *C 46.180 54.625
*N *11437:2 *C 46.120 54.600
*N *11437:3 *C 46.120 54.600
*N *11437:4 *C 46.180 50.876
*N *11437:5 *C 46.180 50.832
*N *11437:6 *C 47.092 50.832
*N *11437:7 *C 47.092 50.832
*N *11437:8 *C 47.032 50.892
*N *11437:9 *C 47.032 50.892

*CAP
0 *210:Y 0.0142304
1 *198:D 0.01563573
2 *11437:2 0.009409536
3 *11437:3 0.1547251
4 *11437:4 0.1437883
5 *11437:5 0.03929384
6 *11437:6 0.04033318
7 *11437:7 0.01425828
8 *11437:8 0.02464424
9 *11437:9 0.008004204

*RES
0 *210:Y *11437:9 0.1916667
1 *11437:9 *11437:8 0.5
2 *11437:8 *11437:7 0.1
3 *11437:7 *11437:6 0.25
4 *11437:6 *11437:5 1.628572
5 *11437:4 *11437:3 6.650893
6 *11437:5 *11437:4 0.25
7 *11437:2 *198:D 0.1916667
8 *11437:3 *11437:2 0.5

*END

*D_NET *11438 0.1843493 //LENGTH 2.127 DR

*CONN
*I *218:Y O *L 0.000 *C 42.795 58.019
*I *202:A3 I *L 0.554 *C 43.748 58.480
*N *11438:2 *C 42.836 57.900
*N *11438:3 *C 43.748 58.310
*N *11438:4 *C 43.748 58.432
*N *11438:5 *C 43.748 58.432
*N *11438:6 *C 43.748 58.432
*N *11438:7 *C 42.836 58.492
*N *11438:8 *C 42.836 58.053
*N *11438:9 *C 42.836 58.022

*CAP
0 *218:Y 0.001
1 *202:A3 0.01544492
2 *11438:2 0.009878123
3 *11438:3 0.01338097
4 *11438:4 0.009218725
5 *11438:5 0.008414701
6 *11438:6 0.04894806
7 *11438:7 0.0630897
8 *11438:8 0.01326475
9 *11438:9 0.001709378

*RES
0 *218:Y *11438:9 0.5
1 *11438:9 *11438:8 0.25
2 *11438:9 *11438:2 0.2033333
3 *11438:8 *11438:7 0.7839287
4 *11438:5 *11438:4 0.5
5 *11438:5 *11438:3 0.2033333
6 *11438:6 *11438:5 0.25
7 *11438:4 *202:A3 0.08181818
8 *11438:7 *11438:6 1.628571

*END

*D_NET *11439 0.2911856 //LENGTH 2.611 DR

*CONN
*I *215:Y O *L 0.000 *C 45.876 59.236
*I *208:A3 I *L 0.554 *C 47.092 58.809
*N *11439:2 *C 47.092 58.856
*N *11439:3 *C 47.092 58.856
*N *11439:4 *C 47.092 58.736
*N *11439:5 *C 47.092 58.736
*N *11439:6 *C 45.876 58.736
*N *11439:7 *C 45.876 58.780
*N *11439:8 *C 45.936 59.211
*N *11439:9 *C 45.936 59.211

*CAP
0 *215:Y 0.01419607
1 *208:A3 0.02110045
2 *11439:2 0.01487425
3 *11439:3 0.01482642
4 *11439:4 0.01413134
5 *11439:5 0.06798435
6 *11439:6 0.06939057
7 *11439:7 0.02604349
8 *11439:8 0.04066876
9 *11439:9 0.007969879

*RES
0 *215:Y *11439:9 0.1916667
1 *11439:9 *11439:8 0.5
2 *11439:8 *11439:7 0.7705358
3 *11439:7 *11439:6 0.25
4 *11439:6 *11439:5 2.171429
5 *11439:4 *11439:3 0.1916667
6 *11439:5 *11439:4 0.25
7 *11439:2 *208:A3 0.08181818
8 *11439:3 *11439:2 0.5

*END

*D_NET *11440 2.094006 //LENGTH 20.637 DR

*CONN
*I *153:Y O *L 0.000 *C 32.956 39.213
*I *276:A2 I *L 0.512 *C 33.352 50.892
*I *277:A3 I *L 0.539 *C 33.624 55.148
*I *121:A4 I *L 0.574 *C 34.840 37.820
*N *11440:4 *C 34.840 37.820
*N *11440:5 *C 34.780 39.541
*N *11440:6 *C 34.780 39.584
*N *11440:7 *C 33.624 55.148
*N *11440:8 *C 33.564 53.628
*N *11440:9 *C 33.412 53.628
*N *11440:10 *C 33.352 50.892
*N *11440:11 *C 33.412 39.628
*N *11440:12 *C 33.412 39.584
*N *11440:13 *C 32.956 39.584
*N *11440:14 *C 32.956 39.541
*N *11440:15 *C 32.896 39.213
*N *11440:16 *C 32.896 39.213

*CAP
0 *153:Y 0.01642289
1 *276:A2 0.001
2 *277:A3 0.001
3 *121:A4 0.001
4 *11440:4 0.09557314
5 *11440:5 0.07951484
6 *11440:6 0.05832671
7 *11440:7 0.08926086
8 *11440:8 0.09010307
9 *11440:9 0.1825772
10 *11440:10 0.7515739
11 *11440:11 0.5670791
12 *11440:12 0.0765476
13 *11440:13 0.02179696
14 *11440:14 0.01901222
15 *11440:15 0.03302153
16 *11440:16 0.01019669

*RES
0 *153:Y *11440:16 0.1916667
1 *11440:10 *276:A2 0.5
2 *11440:10 *11440:9 4.885715
3 *11440:11 *11440:10 20.11518
4 *11440:12 *11440:11 0.25
5 *11440:12 *11440:6 2.442858
6 *11440:7 *277:A3 0.5
7 *11440:14 *11440:13 0.25
8 *11440:13 *11440:12 0.8142858
9 *11440:16 *11440:15 0.5
10 *11440:15 *11440:14 0.5848215
11 *11440:5 *11440:4 3.072322
12 *11440:6 *11440:5 0.25
13 *11440:4 *121:A4 0.5
14 *11440:9 *11440:8 0.2714286
15 *11440:8 *11440:7 2.714286

*END

*D_NET *11441 0.2975086 //LENGTH 2.701 DR

*CONN
*I *214:Y O *L 0.000 *C 45.876 56.576
*I *206:A4 I *L 0.575 *C 45.420 58.011
*N *11441:2 *C 45.420 57.951
*N *11441:3 *C 45.420 57.908
*N *11441:4 *C 45.420 56.500
*N *11441:5 *C 45.420 56.456
*N *11441:6 *C 45.876 56.456
*N *11441:7 *C 45.876 56.456
*N *11441:8 *C 45.876 56.576

*CAP
0 *214:Y 0.001
1 *206:A4 0.0177221
2 *11441:2 0.0114959
3 *11441:3 0.09624062
4 *11441:4 0.09535016
5 *11441:5 0.02588932
6 *11441:6 0.02588932
7 *11441:7 0.01057569
8 *11441:8 0.01334552

*RES
0 *214:Y *11441:8 0.5
1 *11441:8 *11441:7 0.1916667
2 *11441:7 *11441:6 0.25
3 *11441:6 *11441:5 0.8142858
4 *11441:4 *11441:3 2.514286
5 *11441:5 *11441:4 0.25
6 *11441:2 *206:A4 0.08181819
7 *11441:3 *11441:2 0.5

*END

*D_NET *11442 0.3788295 //LENGTH 4.521 DR

*CONN
*I *213:Y O *L 0.000 *C 50.892 51.394
*I *210:A3 I *L 0.554 *C 47.548 51.792
*N *11442:2 *C 47.548 51.622
*N *11442:3 *C 47.548 51.744
*N *11442:4 *C 47.548 51.744
*N *11442:5 *C 47.548 51.744
*N *11442:6 *C 50.892 51.744
*N *11442:7 *C 50.892 51.701
*N *11442:8 *C 50.892 51.493
*N *11442:9 *C 50.892 51.449

*CAP
0 *213:Y 0.01406398
1 *210:A3 0.01527003
2 *11442:2 0.01563234
3 *11442:3 0.009043833
4 *11442:4 0.008433343
5 *11442:5 0.1397805
6 *11442:6 0.1394151
7 *11442:7 0.01423108
8 *11442:8 0.01512154
9 *11442:9 0.007837782

*RES
0 *213:Y *11442:9 0.08181819
1 *11442:9 *11442:8 0.5
2 *11442:8 *11442:7 0.3714286
3 *11442:7 *11442:6 0.25
4 *11442:6 *11442:5 5.971429
5 *11442:4 *11442:3 0.5
6 *11442:4 *11442:2 0.2033333
7 *11442:5 *11442:4 0.25
8 *11442:3 *210:A3 0.08181819

*END

*D_NET *11443 0.5616051 //LENGTH 6.144 DR

*CONN
*I *189:Y O *L 0.000 *C 45.420 21.287
*I *236:A2 I *L 0.492 *C 41.712 19.276
*N *11443:2 *C 41.712 19.276
*N *11443:3 *C 41.772 20.997
*N *11443:4 *C 41.772 21.040
*N *11443:5 *C 45.420 21.040
*N *11443:6 *C 45.420 21.083
*N *11443:7 *C 45.420 21.245

*CAP
0 *189:Y 0.001
1 *236:A2 0.001
2 *11443:2 0.07523264
3 *11443:3 0.06783748
4 *11443:4 0.1939207
5 *11443:5 0.1939317
6 *11443:6 0.01476085
7 *11443:7 0.01392181

*RES
0 *189:Y *11443:7 0.5
1 *11443:2 *236:A2 0.5
2 *11443:3 *11443:2 3.072322
3 *11443:4 *11443:3 0.25
4 *11443:6 *11443:5 0.25
5 *11443:5 *11443:4 6.514286
6 *11443:7 *11443:6 0.27

*END

*D_NET *11444 0.3602884 //LENGTH 3.947 DR

*CONN
*I *198:Q O *L 0.000 *C 49.858 54.496
*I *310:A I *L 0.424 *C 48.612 56.073
*N *11444:2 *C 48.612 55.998
*N *11444:3 *C 48.612 56.120
*N *11444:4 *C 48.612 56.120
*N *11444:5 *C 48.612 56.120
*N *11444:6 *C 49.828 56.120
*N *11444:7 *C 49.828 56.077
*N *11444:8 *C 49.828 54.327
*N *11444:9 *C 49.828 54.333

*CAP
0 *198:Q 0.01592548
1 *310:A 0.01869587
2 *11444:2 0.009691486
3 *11444:3 0.01246967
4 *11444:4 0.002811968
5 *11444:5 0.05584254
6 *11444:6 0.05640602
7 *11444:7 0.08892779
8 *11444:8 0.08981825
9 *11444:9 0.009699286

*RES
0 *198:Q *11444:9 0.1308333
1 *11444:3 *310:A 0.08181819
2 *11444:4 *11444:3 0.5
3 *11444:4 *11444:2 0.2033333
4 *11444:5 *11444:4 0.25
5 *11444:7 *11444:6 0.25
6 *11444:6 *11444:5 2.171429
7 *11444:9 *11444:8 0.5
8 *11444:8 *11444:7 3.124107

*END

*D_NET *11445 1.059238 //LENGTH 11.969 DR

*CONN
*I *199:Q O *L 0.000 *C 50.162 62.950
*I *312:A I *L 0.424 *C 48.004 59.417
*I *203:A1 I *L 0.513 *C 50.297 57.884
*I *204:A1 I *L 0.610 *C 51.424 57.800
*N *11445:4 *C 51.513 57.757
*N *11445:5 *C 51.560 57.757
*N *11445:6 *C 51.500 58.389
*N *11445:7 *C 51.500 58.432
*N *11445:8 *C 50.284 58.432
*N *11445:9 *C 50.284 58.389
*N *11445:10 *C 50.344 57.884
*N *11445:11 *C 50.344 57.884
*N *11445:12 *C 50.140 57.948
*N *11445:13 *C 50.135 57.992
*N *11445:14 *C 48.004 59.464
*N *11445:15 *C 48.004 59.508
*N *11445:16 *C 48.004 59.909
*N *11445:17 *C 48.004 59.952
*N *11445:18 *C 50.132 59.952
*N *11445:19 *C 50.132 59.952
*N *11445:20 *C 50.132 62.949
*N *11445:21 *C 50.132 62.992

*CAP
0 *199:Q 0.01633018
1 *312:A 0.01563472
2 *203:A1 0.02955522
3 *204:A1 0.01268336
4 *11445:4 0.006457168
5 *11445:5 0.03329824
6 *11445:6 0.02599864
7 *11445:7 0.051882
8 *11445:8 0.05524865
9 *11445:9 0.03540653
10 *11445:10 0.04713019
11 *11445:11 0.006266808
12 *11445:12 0.01083602
13 *11445:13 0.1178285
14 *11445:14 0.009408526
15 *11445:15 0.0254408
16 *11445:16 0.02455034
17 *11445:17 0.08185831
18 *11445:18 0.08073793
19 *11445:19 0.2460031
20 *11445:20 0.1165785
21 *11445:21 0.01010399

*RES
0 *199:Q *11445:21 0.08181819
1 *203:A1 *11445:11 0.08181819
2 *11445:12 *203:A1 0.08181819
3 *11445:13 *11445:12 0.5
4 *11445:19 *11445:18 0.25
5 *11445:19 *11445:13 3.500893
6 *11445:18 *11445:17 3.807143
7 *11445:16 *11445:15 0.7160715
8 *11445:17 *11445:16 0.25
9 *11445:14 *312:A 0.08181819
10 *11445:15 *11445:14 0.5
11 *11445:21 *11445:20 0.5
12 *11445:20 *11445:19 5.350893
13 *11445:4 *204:A1 0.03863636
14 *11445:5 *11445:4 0.5
15 *11445:6 *11445:5 1.127679
16 *11445:7 *11445:6 0.25
17 *11445:9 *11445:8 0.25
18 *11445:8 *11445:7 2.171429
19 *11445:11 *11445:10 0.5
20 *11445:10 *11445:9 0.9008929

*END

*D_NET *11446 0.9205177 //LENGTH 10.720 DR

*CONN
*I *200:Q O *L 0.000 *C 49.250 61.184
*I *313:A I *L 0.424 *C 46.180 57.872
*I *203:A2 I *L 0.512 *C 50.132 57.568
*I *204:A2 I *L 0.699 *C 51.196 57.909
*N *11446:4 *C 51.196 57.866
*N *11446:5 *C 51.196 57.564
*N *11446:6 *C 51.196 57.520
*N *11446:7 *C 50.132 57.398
*N *11446:8 *C 50.132 57.520
*N *11446:9 *C 50.132 57.520
*N *11446:10 *C 50.132 57.520
*N *11446:11 *C 46.180 57.824
*N *11446:12 *C 46.180 57.781
*N *11446:13 *C 46.180 57.564
*N *11446:14 *C 46.180 57.520
*N *11446:15 *C 49.220 57.520
*N *11446:16 *C 49.220 57.564
*N *11446:17 *C 49.220 60.953
*N *11446:18 *C 49.220 61.021

*CAP
0 *200:Q 0.01787807
1 *313:A 0.0151942
2 *203:A2 0.01814099
3 *204:A2 0.001
4 *11446:4 0.02113294
5 *11446:5 0.02000035
6 *11446:6 0.04246094
7 *11446:7 0.01016083
8 *11446:8 0.0119148
9 *11446:9 0.003468728
10 *11446:10 0.07714937
11 *11446:11 0.008968009
12 *11446:12 0.01755078
13 *11446:13 0.01666032
14 *11446:14 0.135618
15 *11446:15 0.1691198
16 *11446:16 0.1607786
17 *11446:17 0.1616691
18 *11446:18 0.01165188

*RES
0 *200:Q *11446:18 0.1308333
1 *11446:16 *11446:15 0.25
2 *11446:15 *11446:14 5.428572
3 *11446:15 *11446:10 1.628572
4 *11446:18 *11446:17 0.5
5 *11446:17 *11446:16 6.052679
6 *11446:13 *11446:12 0.3875
7 *11446:14 *11446:13 0.25
8 *11446:11 *313:A 0.08181819
9 *11446:12 *11446:11 0.5
10 *11446:5 *11446:4 0.5392858
11 *11446:6 *11446:5 0.25
12 *11446:4 *204:A2 0.5
13 *11446:9 *11446:8 0.5
14 *11446:9 *11446:7 0.2033333
15 *11446:10 *11446:9 0.25
16 *11446:10 *11446:6 1.907143
17 *11446:8 *203:A2 0.08181819

*END

*D_NET *11447 2.744864 //LENGTH 29.290 DR

*CONN
*I *232:Y O *L 0.000 *C 45.724 28.244
*I *225:A4 I *L 0.575 *C 52.260 29.181
*I *222:A2 I *L 0.459 *C 38.792 42.684
*N *11447:3 *C 38.792 42.684
*N *11447:4 *C 38.732 40.844
*N *11447:5 *C 38.732 40.800
*N *11447:6 *C 45.572 40.800
*N *11447:7 *C 45.572 40.757
*N *11447:8 *C 52.320 29.181
*N *11447:9 *C 52.320 29.181
*N *11447:10 *C 52.260 29.248
*N *11447:11 *C 52.260 29.248
*N *11447:12 *C 45.572 29.248
*N *11447:13 *C 45.572 29.248
*N *11447:14 *C 45.512 28.244
*N *11447:15 *C 45.557 28.244

*CAP
0 *232:Y 0.02272773
1 *225:A4 0.01790444
2 *222:A2 0.001
3 *11447:3 0.09751114
4 *11447:4 0.08671041
5 *11447:5 0.2768201
6 *11447:6 0.2806243
7 *11447:7 0.6245363
8 *11447:8 0.01167825
9 *11447:9 0.02792495
10 *11447:10 0.01624879
11 *11447:11 0.2527104
12 *11447:12 0.2539357
13 *11447:13 0.6895699
14 *11447:14 0.06846068
15 *11447:15 0.01650153

*RES
0 *232:Y *11447:15 0.3340001
1 *11447:15 *11447:14 0.5
2 *11447:14 *11447:13 1.792857
3 *11447:13 *11447:12 0.25
4 *11447:13 *11447:7 20.55089
5 *11447:12 *11447:11 11.94286
6 *11447:10 *11447:9 0.1116667
7 *11447:11 *11447:10 0.25
8 *11447:8 *225:A4 0.1916667
9 *11447:9 *11447:8 0.5
10 *11447:7 *11447:6 0.25
11 *11447:6 *11447:5 12.21429
12 *11447:4 *11447:3 3.286607
13 *11447:5 *11447:4 0.25
14 *11447:3 *222:A2 0.5

*END

*D_NET *11448 0.2911033 //LENGTH 3.282 DR

*CONN
*I *223:Y O *L 0.000 *C 41.212 42.587
*I *222:A4 I *L 0.447 *C 39.218 42.709
*N *11448:2 *C 39.387 42.684
*N *11448:3 *C 39.432 42.684
*N *11448:4 *C 39.492 42.364
*N *11448:5 *C 39.492 42.320
*N *11448:6 *C 41.164 42.320
*N *11448:7 *C 41.164 42.364
*N *11448:8 *C 41.104 42.557
*N *11448:9 *C 41.104 42.557

*CAP
0 *223:Y 0.01349536
1 *222:A4 0.01870049
2 *11448:2 0.01247429
3 *11448:3 0.02983878
4 *11448:4 0.01632675
5 *11448:5 0.08079195
6 *11448:6 0.08013802
7 *11448:7 0.009796224
8 *11448:8 0.02227226
9 *11448:9 0.007269163

*RES
0 *223:Y *11448:9 0.1916667
1 *11448:9 *11448:8 0.5
2 *11448:8 *11448:7 0.3455357
3 *11448:7 *11448:6 0.25
4 *11448:6 *11448:5 2.985714
5 *11448:4 *11448:3 0.5723215
6 *11448:5 *11448:4 0.25
7 *11448:2 *222:A4 0.338
8 *11448:3 *11448:2 0.5

*END

*D_NET *11449 0.4433426 //LENGTH 4.668 DR

*CONN
*I *225:Y O *L 0.000 *C 51.652 28.852
*I *224:A3 I *L 0.554 *C 50.984 25.052
*N *11449:2 *C 50.984 25.052
*N *11449:3 *C 50.984 28.852
*N *11449:4 *C 51.029 28.852

*CAP
0 *225:Y 0.04561173
1 *224:A3 0.001
2 *11449:2 0.1781984
3 *11449:3 0.179147
4 *11449:4 0.03938553

*RES
0 *225:Y *11449:4 1.246
1 *11449:4 *11449:3 0.5
2 *11449:3 *11449:2 6.785715
3 *11449:2 *224:A3 0.5

*END

*D_NET *11450 1.060573 //LENGTH 11.936 DR

*CONN
*I *226:Y O *L 0.000 *C 50.132 30.372
*I *229:A I *L 0.588 *C 51.196 21.100
*I *224:A4 I *L 0.575 *C 51.196 24.571
*N *11450:3 *C 51.196 24.511
*N *11450:4 *C 51.196 24.468
*N *11450:5 *C 51.196 21.144
*N *11450:6 *C 51.196 23.776
*N *11450:7 *C 51.196 23.776
*N *11450:8 *C 50.284 23.776
*N *11450:9 *C 50.284 23.820
*N *11450:10 *C 50.344 30.372
*N *11450:11 *C 50.299 30.372

*CAP
0 *226:Y 0.02394349
1 *229:A 0.001
2 *224:A4 0.01543781
3 *11450:3 0.00921161
4 *11450:4 0.04213195
5 *11450:5 0.1065121
6 *11450:6 0.1587442
7 *11450:7 0.04199687
8 *11450:8 0.04176227
9 *11450:9 0.2951863
10 *11450:10 0.306929
11 *11450:11 0.01771729

*RES
0 *226:Y *11450:11 0.3340001
1 *11450:6 *11450:5 4.700893
2 *11450:6 *11450:4 1.234822
3 *11450:7 *11450:6 0.25
4 *11450:9 *11450:8 0.25
5 *11450:8 *11450:7 1.635714
6 *11450:11 *11450:10 0.5
7 *11450:10 *11450:9 11.75089
8 *11450:5 *229:A 0.5
9 *11450:3 *224:A4 0.08181819
10 *11450:4 *11450:3 0.5

*END

*D_NET *11451 2.410786 //LENGTH 27.053 DR

*CONN
*I *227:Y O *L 0.000 *C 41.864 49.676
*I *226:A2 I *L 0.467 *C 49.818 31.172
*N *11451:2 *C 49.768 31.132
*N *11451:3 *C 49.768 31.132
*N *11451:4 *C 49.828 49.573
*N *11451:5 *C 49.828 49.616
*N *11451:6 *C 41.924 49.736
*N *11451:7 *C 41.924 49.736
*N *11451:8 *C 41.864 49.676

*CAP
0 *227:Y 0.001
1 *226:A2 0.01385531
2 *11451:2 0.00762912
3 *11451:3 0.8596838
4 *11451:4 0.8500417
5 *11451:5 0.3265303
6 *11451:6 0.3276863
7 *11451:7 0.009810355
8 *11451:8 0.01454893

*RES
0 *227:Y *11451:8 0.5
1 *11451:8 *11451:7 0.1
2 *11451:7 *11451:6 0.25
3 *11451:6 *11451:5 14.11429
4 *11451:4 *11451:3 32.97857
5 *11451:5 *11451:4 0.25
6 *11451:2 *226:A2 0.08181819
7 *11451:3 *11451:2 0.5

*END

*D_NET *11452 0.5857708 //LENGTH 7.170 DR

*CONN
*I *224:Y O *L 0.000 *C 50.588 24.140
*I *221:D I *L 0.547 *C 44.812 24.529
*N *11452:2 *C 44.752 24.504
*N *11452:3 *C 44.752 24.504
*N *11452:4 *C 44.812 24.124
*N *11452:5 *C 44.812 24.080
*N *11452:6 *C 50.588 24.080
*N *11452:7 *C 50.588 24.080
*N *11452:8 *C 50.528 24.140
*N *11452:9 *C 50.528 24.140

*CAP
0 *224:Y 0.01397053
1 *221:D 0.01737062
2 *11452:2 0.01114442
3 *11452:3 0.03105834
4 *11452:4 0.01862
5 *11452:5 0.2272107
6 *11452:6 0.2284904
7 *11452:7 0.01032493
8 *11452:8 0.01983657
9 *11452:9 0.007744337

*RES
0 *224:Y *11452:9 0.1916667
1 *11452:9 *11452:8 0.5
2 *11452:8 *11452:7 0.2333333
3 *11452:7 *11452:6 0.25
4 *11452:6 *11452:5 10.33571
5 *11452:4 *11452:3 0.9
6 *11452:5 *11452:4 0.25
7 *11452:2 *221:D 0.1916666
8 *11452:3 *11452:2 0.5

*END

*D_NET *11453 0.332833 //LENGTH 3.919 DR

*CONN
*I *229:Y O *L 0.000 *C 51.530 21.271
*I *224:A1 I *L 0.513 *C 51.530 24.444
*N *11453:2 *C 51.699 24.444
*N *11453:3 *C 51.744 24.444
*N *11453:4 *C 51.744 21.293
*N *11453:5 *C 51.699 21.293

*CAP
0 *229:Y 0.01816805
1 *224:A1 0.0187626
2 *11453:2 0.01253641
3 *11453:3 0.1359448
4 *11453:4 0.1354793
5 *11453:5 0.01194186

*RES
0 *229:Y *11453:5 0.338
1 *11453:5 *11453:4 0.5
2 *11453:4 *11453:3 5.626786
3 *11453:2 *224:A1 0.338
4 *11453:3 *11453:2 0.5

*END

*D_NET *11454 4.182323 //LENGTH 43.572 DR

*CONN
*I *201:Q O *L 0.000 *C 45.906 62.950
*I *279:A I *L 0.564 *C 44.204 61.228
*I *322:A I *L 0.564 *C 44.356 59.404
*I *232:A2 I *L 1.042 *C 47.396 27.788
*I *293:A I *L 0.564 *C 48.004 29.308
*I *234:A2 I *L 0.542 *C 47.092 49.400
*N *11454:6 *C 47.092 49.312
*N *11454:7 *C 47.092 49.269
*N *11454:8 *C 48.004 29.265
*N *11454:9 *C 48.004 28.988
*N *11454:10 *C 48.004 28.944
*N *11454:11 *C 47.396 27.788
*N *11454:12 *C 47.396 28.901
*N *11454:13 *C 47.396 28.944
*N *11454:14 *C 46.940 28.944
*N *11454:15 *C 46.940 28.988
*N *11454:16 *C 46.940 49.068
*N *11454:17 *C 47.092 49.082
*N *11454:18 *C 47.092 49.008
*N *11454:19 *C 44.356 49.008
*N *11454:20 *C 44.356 49.052
*N *11454:21 *C 44.356 59.404
*N *11454:22 *C 44.204 61.228
*N *11454:23 *C 44.356 61.125
*N *11454:24 *C 44.356 61.168
*N *11454:25 *C 45.876 61.168
*N *11454:26 *C 45.876 61.212
*N *11454:27 *C 45.876 62.949
*N *11454:28 *C 45.876 62.992

*CAP
0 *201:Q 0.01648227
1 *279:A 0.001
2 *322:A 0.001
3 *232:A2 0.001
4 *293:A 0.001
5 *234:A2 0.01286234
6 *11454:6 0.006636146
7 *11454:7 0.03651489
8 *11454:8 0.01827277
9 *11454:9 0.01599871
10 *11454:10 0.03585655
11 *11454:11 0.06804107
12 *11454:12 0.05832516
13 *11454:13 0.06089116
14 *11454:14 0.03040598
15 *11454:15 0.9805698
16 *11454:16 0.9967284
17 *11454:17 0.04466625
18 *11454:18 0.1281576
19 *11454:19 0.1277112
20 *11454:20 0.5189117
21 *11454:21 0.6054006
22 *11454:22 0.01112955
23 *11454:23 0.08012839
24 *11454:24 0.06754407
25 *11454:25 0.06970324
26 *11454:26 0.08811913
27 *11454:27 0.0890096
28 *11454:28 0.01025608

*RES
0 *201:Q *11454:28 0.08181819
1 *11454:21 *322:A 0.5
2 *11454:21 *11454:20 18.48661
3 *11454:23 *11454:22 0.2714286
4 *11454:23 *11454:21 3.072322
5 *11454:24 *11454:23 0.25
6 *11454:26 *11454:25 0.25
7 *11454:25 *11454:24 2.714286
8 *11454:28 *11454:27 0.5
9 *11454:27 *11454:26 3.101786
10 *11454:6 *234:A2 0.08181818
11 *11454:7 *11454:6 0.5
12 *11454:20 *11454:19 0.25
13 *11454:19 *11454:18 4.885715
14 *11454:17 *11454:16 0.2714286
15 *11454:17 *11454:7 0.3339286
16 *11454:18 *11454:17 0.25
17 *11454:9 *11454:8 0.4946429
18 *11454:10 *11454:9 0.25
19 *11454:8 *293:A 0.5
20 *11454:22 *279:A 0.5
21 *11454:15 *11454:14 0.25
22 *11454:14 *11454:13 0.8142858
23 *11454:12 *11454:11 1.986607
24 *11454:13 *11454:12 0.25
25 *11454:13 *11454:10 1.085714
26 *11454:11 *232:A2 0.5
27 *11454:16 *11454:15 35.85804

*END

*D_NET *11455 3.824574 //LENGTH 36.597 DR

*CONN
*I *103:Y O *L 0.000 *C 30.220 35.869
*I *276:A1 I *L 0.548 *C 33.260 51.235
*I *277:A2 I *L 0.492 *C 33.078 54.540
*I *268:A2 I *L 0.512 *C 35.144 56.364
*I *273:A2 I *L 0.512 *C 29.764 53.049
*I *125:A1 I *L 0.483 *C 31.192 35.996
*I *140:A2 I *L 0.467 *C 31.135 32.692
*N *11455:7 *C 31.132 32.712
*N *11455:8 *C 31.132 32.756
*N *11455:9 *C 31.132 35.236
*N *11455:10 *C 31.284 35.236
*N *11455:11 *C 31.192 35.996
*N *11455:12 *C 31.132 35.936
*N *11455:13 *C 31.132 35.936
*N *11455:14 *C 30.220 35.936
*N *11455:15 *C 30.220 35.936
*N *11455:16 *C 30.280 35.869
*N *11455:17 *C 30.280 35.869
*N *11455:18 *C 29.824 53.020
*N *11455:19 *C 29.824 53.020
*N *11455:20 *C 35.144 56.364
*N *11455:21 *C 35.084 55.740
*N *11455:22 *C 35.084 55.696
*N *11455:23 *C 33.260 55.696
*N *11455:24 *C 33.260 55.653
*N *11455:25 *C 32.789 54.540
*N *11455:26 *C 32.744 54.540
*N *11455:27 *C 32.804 54.480
*N *11455:28 *C 32.804 54.480
*N *11455:29 *C 33.260 54.600
*N *11455:30 *C 33.260 54.600
*N *11455:31 *C 33.260 51.256
*N *11455:32 *C 33.260 51.300
*N *11455:33 *C 33.260 52.048
*N *11455:34 *C 33.260 52.048
*N *11455:35 *C 29.764 52.048
*N *11455:36 *C 29.764 52.122
*N *11455:37 *C 29.460 52.108
*N *11455:38 *C 29.460 36.436
*N *11455:39 *C 29.460 36.392
*N *11455:40 *C 30.068 36.392
*N *11455:41 *C 30.068 36.392
*N *11455:42 *C 30.068 36.512

*CAP
0 *103:Y 0.01489977
1 *276:A1 0.01480508
2 *277:A2 0.02677235
3 *268:A2 0.001
4 *273:A2 0.01521989
5 *125:A1 0.001
6 *140:A2 0.01477951
7 *11455:7 0.008553318
8 *11455:8 0.1592175
9 *11455:9 0.1736297
10 *11455:10 0.05353663
11 *11455:11 0.07289755
12 *11455:12 0.01735965
13 *11455:13 0.04077552
14 *11455:14 0.0417803
15 *11455:15 0.01127538
16 *11455:16 0.01906282
17 *11455:17 0.01299755
18 *11455:18 0.008993693
19 *11455:19 0.07573893
20 *11455:20 0.05121688
21 *11455:21 0.03851245
22 *11455:22 0.08474781
23 *11455:23 0.08306549
24 *11455:24 0.07008859
25 *11455:25 0.02054616
26 *11455:26 0.0158984
27 *11455:27 0.00901172
28 *11455:28 0.02246553
29 *11455:29 0.02200844
30 *11455:30 0.2716544
31 *11455:31 0.008578887
32 *11455:32 0.06499855
33 *11455:33 0.2660801
34 *11455:34 0.1445668
35 *11455:35 0.1460223
36 *11455:36 0.07631616
37 *11455:37 0.7892138
38 *11455:38 0.764333
39 *11455:39 0.03181911
40 *11455:40 0.03181911
41 *11455:41 0.01228589
42 *11455:42 0.01502935

*RES
0 *103:Y *11455:42 0.5
1 *103:Y *11455:17 0.1916667
2 *11455:11 *125:A1 0.5
3 *11455:11 *11455:10 1.357143
4 *11455:38 *11455:37 27.98661
5 *11455:39 *11455:38 0.25
6 *11455:41 *11455:40 0.25
7 *11455:40 *11455:39 1.085714
8 *11455:42 *11455:41 0.1916667
9 *11455:24 *11455:23 0.25
10 *11455:23 *11455:22 3.257143
11 *11455:21 *11455:20 1.115179
12 *11455:22 *11455:21 0.25
13 *11455:20 *268:A2 0.5
14 *11455:30 *11455:29 0.25
15 *11455:30 *11455:24 1.879465
16 *11455:29 *11455:28 0.8142858
17 *11455:27 *11455:26 0.2333333
18 *11455:28 *11455:27 0.25
19 *11455:25 *277:A2 0.578
20 *11455:26 *11455:25 0.5
21 *11455:18 *273:A2 0.1916667
22 *11455:19 *11455:18 0.5
23 *11455:31 *276:A1 0.08181819
24 *11455:32 *11455:31 0.5
25 *11455:12 *11455:11 0.1
26 *11455:13 *11455:12 0.25
27 *11455:15 *11455:14 0.25
28 *11455:14 *11455:13 1.628572
29 *11455:17 *11455:16 0.5
30 *11455:16 *11455:15 0.1116667
31 *11455:36 *11455:35 0.25
32 *11455:36 *11455:19 1.604465
33 *11455:35 *11455:34 6.242857
34 *11455:33 *11455:32 1.514286
35 *11455:33 *11455:30 4.557143
36 *11455:34 *11455:33 0.25
37 *11455:7 *140:A2 0.08181819
38 *11455:8 *11455:7 0.5
39 *11455:37 *11455:36 0.5428572
40 *11455:9 *11455:8 4.429465
41 *11455:10 *11455:9 0.2714286

*END

*D_NET *11456 0.1763329 //LENGTH 1.656 DR

*CONN
*I *228:Y O *L 0.000 *C 52.260 30.676
*I *225:A2 I *L 0.512 *C 52.425 29.612
*N *11456:2 *C 52.472 29.612
*N *11456:3 *C 52.472 29.612
*N *11456:4 *C 52.472 30.676
*N *11456:5 *C 52.427 30.676

*CAP
0 *228:Y 0.01781067
1 *225:A2 0.01349139
2 *11456:2 0.007265193
3 *11456:3 0.06079818
4 *11456:4 0.06538297
5 *11456:5 0.01158447

*RES
0 *228:Y *11456:5 0.3340001
1 *11456:5 *11456:4 0.5
2 *11456:4 *11456:3 1.9
3 *11456:2 *225:A2 0.08181818
4 *11456:3 *11456:2 0.5

*END

*D_NET *11457 0.1713858 //LENGTH 1.713 DR

*CONN
*I *234:Y O *L 0.000 *C 46.484 48.764
*I *314:A I *L 0.564 *C 46.028 47.852
*N *11457:2 *C 46.028 47.896
*N *11457:3 *C 45.968 48.764
*N *11457:4 *C 46.013 48.764

*CAP
0 *234:Y 0.04335826
1 *314:A 0.001
2 *11457:2 0.0398266
3 *11457:3 0.05006887
4 *11457:4 0.03713206

*RES
0 *234:Y *11457:4 0.9420001
1 *11457:2 *314:A 0.5
2 *11457:4 *11457:3 0.5
3 *11457:3 *11457:2 1.550893

*END

*D_NET *11458 0.5240719 //LENGTH 6.562 DR

*CONN
*I *236:Y O *L 0.000 *C 40.860 19.884
*I *235:D I *L 0.547 *C 39.948 24.529
*N *11458:2 *C 39.888 24.504
*N *11458:3 *C 39.888 24.504
*N *11458:4 *C 39.948 19.868
*N *11458:5 *C 39.948 19.824
*N *11458:6 *C 40.860 19.824
*N *11458:7 *C 40.860 19.824
*N *11458:8 *C 40.800 19.884
*N *11458:9 *C 40.800 19.884

*CAP
0 *236:Y 0.01446463
1 *235:D 0.01339296
2 *11458:2 0.007166766
3 *11458:3 0.1930253
4 *11458:4 0.1818834
5 *11458:5 0.0389625
6 *11458:6 0.04004928
7 *11458:7 0.01029578
8 *11458:8 0.01659283
9 *11458:9 0.00823843

*RES
0 *236:Y *11458:9 0.1916667
1 *11458:9 *11458:8 0.5
2 *11458:8 *11458:7 0.1
3 *11458:7 *11458:6 0.25
4 *11458:6 *11458:5 1.628572
5 *11458:4 *11458:3 8.279465
6 *11458:5 *11458:4 0.25
7 *11458:2 *235:D 0.1916667
8 *11458:3 *11458:2 0.5

*END

*D_NET *11459 8.398419 //LENGTH 96.010 DR

*CONN
*I *219:Y O *L 0.000 *C 67.460 15.020
*I *34:RSTB I *L 0.914 *C 67.704 18.364
*I *71:D I *L 0.613 *C 65.788 24.257
*I *33:RSTB I *L 0.914 *C 62.384 21.708
*I *39:A I *L 0.738 *C 58.796 21.088
*I *88:RSTB I *L 0.914 *C 65.544 28.700
*I *79:RSTB I *L 0.914 *C 66.918 38.699
*I *283:A I *L 0.738 *C 55.908 47.840
*I *80:RSTB I *L 0.914 *C 60.408 52.108
*I *61:A1 I *L 0.603 *C 65.028 64.460
*I *44:A1 I *L 0.617 *C 67.764 69.476
*I *48:A3 I *L 0.590 *C 63.192 59.596
*I *77:RSTB I *L 0.914 *C 68.160 45.116
*I *37:RSTB I *L 0.912 *C 66.944 25.356
*N *11459:14 *C 66.944 25.356
*N *11459:15 *C 68.160 45.116
*N *11459:16 *C 68.220 45.056
*N *11459:17 *C 68.220 45.056
*N *11459:18 *C 63.120 59.611
*N *11459:19 *C 63.120 59.611
*N *11459:20 *C 63.204 59.648
*N *11459:21 *C 63.204 59.648
*N *11459:22 *C 67.764 69.496
*N *11459:23 *C 67.764 69.465
*N *11459:24 *C 67.764 64.860
*N *11459:25 *C 67.764 64.816
*N *11459:26 *C 65.028 64.395
*N *11459:27 *C 65.028 64.439
*N *11459:28 *C 65.028 64.773
*N *11459:29 *C 65.028 64.816
*N *11459:30 *C 62.596 64.816
*N *11459:31 *C 62.596 64.773
*N *11459:32 *C 62.596 59.692
*N *11459:33 *C 62.596 59.648
*N *11459:34 *C 60.468 59.648
*N *11459:35 *C 60.468 59.605
*N *11459:36 *C 60.408 52.108
*N *11459:37 *C 55.908 47.792
*N *11459:38 *C 55.908 47.792
*N *11459:39 *C 55.908 47.912
*N *11459:40 *C 55.908 47.912
*N *11459:41 *C 60.468 47.792
*N *11459:42 *C 60.468 47.792
*N *11459:43 *C 60.468 45.220
*N *11459:44 *C 60.468 45.176
*N *11459:45 *C 67.156 45.056
*N *11459:46 *C 67.156 45.013
*N *11459:47 *C 67.156 38.732
*N *11459:48 *C 66.918 38.699
*N *11459:49 *C 67.004 38.672
*N *11459:50 *C 67.004 38.672
*N *11459:51 *C 65.940 38.672
*N *11459:52 *C 65.940 38.629
*N *11459:53 *C 65.544 28.700
*N *11459:54 *C 65.484 28.640
*N *11459:55 *C 65.484 28.640
*N *11459:56 *C 65.940 28.640
*N *11459:57 *C 65.940 28.640
*N *11459:58 *C 58.796 20.918
*N *11459:59 *C 58.796 21.040
*N *11459:60 *C 58.796 21.040
*N *11459:61 *C 58.796 21.040
*N *11459:62 *C 62.444 21.040
*N *11459:63 *C 62.444 21.084
*N *11459:64 *C 62.384 21.708
*N *11459:65 *C 62.444 24.037
*N *11459:66 *C 62.444 24.080
*N *11459:67 *C 65.788 24.140
*N *11459:68 *C 65.788 24.140
*N *11459:69 *C 65.788 24.301
*N *11459:70 *C 65.788 25.356
*N *11459:71 *C 65.940 25.370
*N *11459:72 *C 65.940 25.296
*N *11459:73 *C 67.004 25.296
*N *11459:74 *C 67.004 25.296
*N *11459:75 *C 67.156 25.356
*N *11459:76 *C 67.156 21.708
*N *11459:77 *C 67.308 21.708
*N *11459:78 *C 67.704 18.364
*N *11459:79 *C 67.764 18.304
*N *11459:80 *C 67.764 18.304
*N *11459:81 *C 67.308 18.304
*N *11459:82 *C 67.308 18.304
*N *11459:83 *C 67.248 15.020
*N *11459:84 *C 67.293 15.020

*CAP
0 *219:Y 0.02368709
1 *34:RSTB 0.001
2 *71:D 0.001
3 *33:RSTB 0.001
4 *39:A 0.01459748
5 *88:RSTB 0.001
6 *79:RSTB 0.001
7 *283:A 0.01467817
8 *80:RSTB 0.001
9 *61:A1 0.01966601
10 *44:A1 0.01692065
11 *48:A3 0.02299002
12 *77:RSTB 0.001
13 *37:RSTB 0.001
14 *11459:14 0.02472611
15 *11459:15 0.01577443
16 *11459:16 0.008600107
17 *11459:17 0.03959728
18 *11459:18 0.01676382
19 *11459:19 0.02268746
20 *11459:20 0.01189031
21 *11459:21 0.03071969
22 *11459:22 0.01069445
23 *11459:23 0.1821939
24 *11459:24 0.1813035
25 *11459:25 0.09259529
26 *11459:26 0.01343982
27 *11459:27 0.02453479
28 *11459:28 0.02364433
29 *11459:29 0.1907038
30 *11459:30 0.09903236
31 *11459:31 0.2383533
32 *11459:32 0.2383533
33 *11459:33 0.1072066
34 *11459:34 0.07809833
35 *11459:35 0.3286201
36 *11459:36 0.5142573
37 *11459:37 0.008451978
38 *11459:38 0.01287358
39 *11459:39 0.01198312
40 *11459:40 0.2298352
41 *11459:41 0.2316477
42 *11459:42 0.2811335
43 *11459:43 0.1022484
44 *11459:44 0.290703
45 *11459:45 0.3320267
46 *11459:46 0.3576478
47 *11459:47 0.3722877
48 *11459:48 0.02166229
49 *11459:49 0.02072223
50 *11459:50 0.04565703
51 *11459:51 0.04565703
52 *11459:52 0.3798312
53 *11459:53 0.01551052
54 *11459:54 0.00782159
55 *11459:55 0.02011651
56 *11459:56 0.0203478
57 *11459:57 0.5529473
58 *11459:58 0.009761305
59 *11459:59 0.008371288
60 *11459:60 0.003079469
61 *11459:61 0.157211
62 *11459:62 0.162935
63 *11459:63 0.02635403
64 *11459:64 0.1391091
65 *11459:65 0.09129816
66 *11459:66 0.1467435
67 *11459:67 0.1505949
68 *11459:68 0.01232585
69 *11459:69 0.06604431
70 *11459:70 0.0666323
71 *11459:71 0.1691819
72 *11459:72 0.04901368
73 *11459:73 0.04901368
74 *11459:74 0.02110275
75 *11459:75 0.1863493
76 *11459:76 0.1869786
77 *11459:77 0.1758613
78 *11459:78 0.0182455
79 *11459:79 0.01027479
80 *11459:80 0.03158138
81 *11459:81 0.03158138
82 *11459:82 0.2997361
83 *11459:83 0.1361365
84 *11459:84 0.0174609

*RES
0 *219:Y *11459:84 0.52
1 *11459:16 *11459:15 0.1
2 *11459:17 *11459:16 0.25
3 *11459:15 *77:RSTB 0.5
4 *11459:43 *11459:42 4.59375
5 *11459:44 *11459:43 0.25
6 *11459:64 *33:RSTB 0.5
7 *11459:64 *11459:63 1.115179
8 *11459:28 *11459:27 0.5964286
9 *11459:29 *11459:28 0.25
10 *11459:29 *11459:25 4.885715
11 *11459:26 *61:A1 0.08181819
12 *11459:27 *11459:26 0.5
13 *11459:48 *79:RSTB 0.5
14 *11459:84 *11459:83 0.5
15 *11459:83 *11459:82 5.864286
16 *11459:63 *11459:62 0.25
17 *11459:62 *11459:61 6.514286
18 *11459:60 *11459:59 0.5
19 *11459:60 *11459:58 0.2033333
20 *11459:61 *11459:60 0.25
21 *11459:59 *39:A 0.08181819
22 *11459:68 *11459:67 0.25
23 *11459:67 *11459:66 6.050001
24 *11459:65 *11459:64 4.158036
25 *11459:66 *11459:65 0.25
26 *11459:49 *11459:48 0.045
27 *11459:49 *11459:47 0.2696429
28 *11459:50 *11459:49 0.25
29 *11459:52 *11459:51 0.25
30 *11459:51 *11459:50 1.9
31 *11459:46 *11459:45 0.25
32 *11459:45 *11459:44 11.94286
33 *11459:45 *11459:17 1.9
34 *11459:31 *11459:30 0.25
35 *11459:30 *11459:29 4.342857
36 *11459:32 *11459:31 9.073215
37 *11459:33 *11459:32 0.25
38 *11459:33 *11459:21 1.085714
39 *11459:35 *11459:34 0.25
40 *11459:34 *11459:33 3.8
41 *11459:42 *11459:41 0.25
42 *11459:42 *11459:36 7.707143
43 *11459:41 *11459:40 8.142858
44 *11459:39 *11459:38 0.1916667
45 *11459:40 *11459:39 0.25
46 *11459:37 *283:A 0.08181819
47 *11459:38 *11459:37 0.5
48 *11459:74 *11459:73 0.25
49 *11459:74 *11459:14 0.1
50 *11459:73 *11459:72 1.9
51 *11459:71 *11459:70 0.2714286
52 *11459:71 *11459:57 5.840179
53 *11459:72 *11459:71 0.25
54 *11459:57 *11459:56 0.25
55 *11459:57 *11459:52 17.83661
56 *11459:56 *11459:55 0.8142858
57 *11459:54 *11459:53 0.1
58 *11459:55 *11459:54 0.25
59 *11459:53 *88:RSTB 0.5
60 *11459:14 *37:RSTB 0.5
61 *11459:36 *80:RSTB 0.5
62 *11459:36 *11459:35 13.38661
63 *11459:20 *11459:19 0.06166667
64 *11459:21 *11459:20 0.25
65 *11459:18 *48:A3 0.1916667
66 *11459:19 *11459:18 0.5
67 *11459:24 *11459:23 8.224108
68 *11459:25 *11459:24 0.25
69 *11459:22 *44:A1 0.1916667
70 *11459:23 *11459:22 0.5
71 *11459:82 *11459:81 0.25
72 *11459:82 *11459:77 6.078571
73 *11459:81 *11459:80 0.8142858
74 *11459:79 *11459:78 0.1
75 *11459:80 *11459:79 0.25
76 *11459:78 *34:RSTB 0.5
77 *11459:69 *71:D 0.5
78 *11459:69 *11459:68 0.1916667
79 *11459:70 *11459:69 1.884822
80 *11459:75 *11459:74 0.2696429
81 *11459:47 *11459:46 11.21518
82 *11459:76 *11459:75 6.514286
83 *11459:77 *11459:76 0.2714286

*END

*D_NET *11461 0.3743528 //LENGTH 3.889 DR

*CONN
*I *280:Y O *L 0.000 *C 24.748 35.480
*I *163:D I *L 0.547 *C 22.164 34.568
*N *11461:2 *C 22.164 34.568
*N *11461:3 *C 22.164 34.720
*N *11461:4 *C 22.164 34.720
*N *11461:5 *C 24.748 34.720
*N *11461:6 *C 24.748 34.764
*N *11461:7 *C 24.748 35.449

*CAP
0 *280:Y 0.001
1 *163:D 0.001
2 *11461:2 0.0134471
3 *11461:3 0.01246642
4 *11461:4 0.1171274
5 *11461:5 0.1194054
6 *11461:6 0.05468166
7 *11461:7 0.05522481

*RES
0 *280:Y *11461:7 0.5
1 *11461:7 *11461:6 1.224107
2 *11461:6 *11461:5 0.25
3 *11461:5 *11461:4 4.614286
4 *11461:3 *11461:2 0.1916667
5 *11461:4 *11461:3 0.25
6 *11461:2 *163:D 0.5

*END

*D_NET *11462 0.9437697 //LENGTH 9.828 DR

*CONN
*I *237:Y O *L 0.000 *C 39.066 54.667
*I *211:A2 I *L 0.467 *C 43.748 54.580
*I *207:A2 I *L 0.583 *C 43.748 52.744
*I *36:A I *L 0.588 *C 40.526 56.060
*N *11462:4 *C 39.933 56.060
*N *11462:5 *C 39.888 56.060
*N *11462:6 *C 43.748 52.656
*N *11462:7 *C 43.748 52.700
*N *11462:8 *C 43.748 54.600
*N *11462:9 *C 43.748 54.600
*N *11462:10 *C 43.748 54.600
*N *11462:11 *C 39.948 54.480
*N *11462:12 *C 39.948 54.480
*N *11462:13 *C 39.948 54.651
*N *11462:14 *C 39.948 54.607

*CAP
0 *237:Y 0.06092132
1 *211:A2 0.01382221
2 *207:A2 0.01490383
3 *36:A 0.04045647
4 *11462:4 0.03423027
5 *11462:5 0.09429792
6 *11462:6 0.008677633
7 *11462:7 0.1056774
8 *11462:8 0.00759602
9 *11462:9 0.109999
10 *11462:10 0.1360414
11 *11462:11 0.1392363
12 *11462:12 0.01247577
13 *11462:13 0.0926534
14 *11462:14 0.07278075

*RES
0 *237:Y *11462:14 1.868
1 *11462:8 *211:A2 0.1916667
2 *11462:9 *11462:8 0.5
3 *11462:9 *11462:7 3.39375
4 *11462:6 *207:A2 0.08181819
5 *11462:7 *11462:6 0.5
6 *11462:14 *11462:13 0.5
7 *11462:13 *11462:12 0.325
8 *11462:13 *11462:5 2.516964
9 *11462:4 *36:A 1.186
10 *11462:5 *11462:4 0.5
11 *11462:10 *11462:9 0.25
12 *11462:12 *11462:11 0.25
13 *11462:11 *11462:10 6.785715

*END

*D_NET *11463 4.597407 //LENGTH 51.131 DR

*CONN
*I *278:Y O *L 0.000 *C 62.900 25.837
*I *94:A2 I *L 0.512 *C 62.153 32.956
*I *95:A2 I *L 0.512 *C 68.689 34.172
*I *81:A2 I *L 0.512 *C 55.604 44.243
*I *90:A2 I *L 1.032 *C 57.672 47.852
*I *84:A1 I *L 0.603 *C 58.340 39.527
*I *86:A2 I *L 0.704 *C 62.444 35.854
*I *91:A2 I *L 0.512 *C 55.885 26.268
*I *92:A2 I *L 0.512 *C 55.885 29.612
*N *11463:9 *C 56.078 29.612
*N *11463:10 *C 56.120 29.612
*N *11463:11 *C 56.078 26.268
*N *11463:12 *C 56.120 26.268
*N *11463:13 *C 56.060 26.512
*N *11463:14 *C 56.060 26.512
*N *11463:15 *C 62.431 35.879
*N *11463:16 *C 62.424 35.996
*N *11463:17 *C 58.340 39.484
*N *11463:18 *C 57.672 47.852
*N *11463:19 *C 55.604 44.264
*N *11463:20 *C 55.604 44.308
*N *11463:21 *C 55.604 44.709
*N *11463:22 *C 55.604 44.752
*N *11463:23 *C 57.732 44.752
*N *11463:24 *C 57.732 44.812
*N *11463:25 *C 57.884 44.812
*N *11463:26 *C 57.884 39.020
*N *11463:27 *C 57.884 38.976
*N *11463:28 *C 58.340 38.976
*N *11463:29 *C 58.340 38.976
*N *11463:30 *C 58.340 35.980
*N *11463:31 *C 58.340 35.936
*N *11463:32 *C 62.292 35.936
*N *11463:33 *C 62.293 35.996
*N *11463:34 *C 68.846 34.172
*N *11463:35 *C 68.888 34.172
*N *11463:36 *C 68.828 34.112
*N *11463:37 *C 68.828 34.112
*N *11463:38 *C 62.292 34.112
*N *11463:39 *C 62.292 34.186
*N *11463:40 *C 62.140 34.172
*N *11463:41 *C 62.200 32.956
*N *11463:42 *C 62.200 32.956
*N *11463:43 *C 62.140 26.556
*N *11463:44 *C 62.140 26.512
*N *11463:45 *C 62.900 26.512
*N *11463:46 *C 62.900 26.469
*N *11463:47 *C 62.840 25.837
*N *11463:48 *C 62.840 25.837

*CAP
0 *278:Y 0.01964029
1 *94:A2 0.01336088
2 *95:A2 0.0190464
3 *81:A2 0.01859271
4 *90:A2 0.001
5 *84:A1 0.001
6 *86:A2 0.001
7 *91:A2 0.01992523
8 *92:A2 0.01972539
9 *11463:9 0.01349919
10 *11463:10 0.1881915
11 *11463:11 0.01369904
12 *11463:12 0.02979658
13 *11463:13 0.2007063
14 *11463:14 0.2305523
15 *11463:15 0.009798349
16 *11463:16 0.02396058
17 *11463:17 0.03584861
18 *11463:18 0.1436449
19 *11463:19 0.01236651
20 *11463:20 0.04313639
21 *11463:21 0.04224593
22 *11463:22 0.09558605
23 *11463:23 0.09554487
24 *11463:24 0.1373616
25 *11463:25 0.2551123
26 *11463:26 0.2401537
27 *11463:27 0.02565886
28 *11463:28 0.02565886
29 *11463:29 0.2144538
30 *11463:30 0.1673233
31 *11463:31 0.1462009
32 *11463:32 0.1445749
33 *11463:33 0.1043993
34 *11463:34 0.01282021
35 *11463:35 0.02510731
36 *11463:36 0.01317271
37 *11463:37 0.2721485
38 *11463:38 0.2737175
39 *11463:39 0.1041378
40 *11463:40 0.07501508
41 *11463:41 0.007134684
42 *11463:42 0.3740468
43 *11463:43 0.2982233
44 *11463:44 0.2652667
45 *11463:45 0.04016397
46 *11463:46 0.02877065
47 *11463:47 0.04150235
48 *11463:48 0.0134141

*RES
0 *278:Y *11463:48 0.1916667
1 *11463:39 *11463:38 0.25
2 *11463:39 *11463:33 3.233036
3 *11463:38 *11463:37 11.67143
4 *11463:36 *11463:35 0.1
5 *11463:37 *11463:36 0.25
6 *11463:34 *95:A2 0.2616667
7 *11463:35 *11463:34 0.5
8 *11463:41 *94:A2 0.08181819
9 *11463:42 *11463:41 0.5
10 *11463:42 *11463:40 2.171429
11 *11463:24 *11463:23 0.25
12 *11463:24 *11463:18 5.45
13 *11463:23 *11463:22 3.8
14 *11463:21 *11463:20 0.8794643
15 *11463:22 *11463:21 0.25
16 *11463:19 *81:A2 0.08181819
17 *11463:20 *11463:19 0.5
18 *11463:43 *11463:42 11.42947
19 *11463:44 *11463:43 0.25
20 *11463:44 *11463:14 10.85714
21 *11463:18 *90:A2 0.5
22 *11463:46 *11463:45 0.25
23 *11463:45 *11463:44 1.357143
24 *11463:48 *11463:47 0.5
25 *11463:47 *11463:46 1.127679
26 *11463:29 *11463:28 0.25
27 *11463:29 *11463:17 0.9062501
28 *11463:28 *11463:27 0.8142858
29 *11463:26 *11463:25 10.34375
30 *11463:27 *11463:26 0.25
31 *11463:30 *11463:29 5.350893
32 *11463:31 *11463:30 0.25
33 *11463:33 *11463:32 0.25
34 *11463:33 *11463:16 0.2330357
35 *11463:32 *11463:31 7.057143
36 *11463:11 *91:A2 0.3208334
37 *11463:12 *11463:11 0.5
38 *11463:9 *92:A2 0.3208334
39 *11463:10 *11463:9 0.5
40 *11463:13 *11463:12 0.4357143
41 *11463:13 *11463:10 5.535714
42 *11463:14 *11463:13 0.25
43 *11463:15 *86:A2 0.5
44 *11463:17 *84:A1 0.5
45 *11463:25 *11463:24 0.2714286
46 *11463:40 *11463:39 0.2714286
47 *11463:16 *11463:15 0.1415663

*END

*D_NET *11464 0.8641253 //LENGTH 9.671 DR

*CONN
*I *256:Y O *L 0.000 *C 26.724 56.820
*I *286:A I *L 0.588 *C 25.356 59.404
*I *255:A4 I *L 0.575 *C 20.492 59.277
*N *11464:3 *C 20.552 59.277
*N *11464:4 *C 20.552 59.277
*N *11464:5 *C 20.492 59.344
*N *11464:6 *C 20.492 59.344
*N *11464:7 *C 25.356 59.344
*N *11464:8 *C 25.356 59.331
*N *11464:9 *C 25.296 56.820
*N *11464:10 *C 25.341 56.820

*CAP
0 *256:Y 0.1025408
1 *286:A 0.001
2 *255:A4 0.0171098
3 *11464:3 0.0108836
4 *11464:4 0.02839291
5 *11464:5 0.01570871
6 *11464:6 0.2013716
7 *11464:7 0.2014363
8 *11464:8 0.08704962
9 *11464:9 0.1023174
10 *11464:10 0.09631462

*RES
0 *256:Y *11464:10 2.766
1 *11464:8 *286:A 0.5
2 *11464:8 *11464:7 0.25
3 *11464:10 *11464:9 0.5
4 *11464:9 *11464:8 4.483036
5 *11464:7 *11464:6 8.685715
6 *11464:5 *11464:4 0.1116667
7 *11464:6 *11464:5 0.25
8 *11464:3 *255:A4 0.1916667
9 *11464:4 *11464:3 0.5

*END

*D_NET *11465 1.4225 //LENGTH 14.356 DR

*CONN
*I *263:Y O *L 0.000 *C 29.612 55.148
*I *260:A1 I *L 0.617 *C 28.700 57.924
*I *262:A2 I *L 0.558 *C 31.862 59.596
*I *258:A1 I *L 0.617 *C 27.940 59.404
*I *256:A3 I *L 0.522 *C 27.180 56.252
*N *11465:5 *C 27.180 56.297
*N *11465:6 *C 27.180 56.341
*N *11465:7 *C 27.180 56.869
*N *11465:8 *C 27.180 56.912
*N *11465:9 *C 27.940 59.361
*N *11465:10 *C 31.832 59.594
*N *11465:11 *C 31.862 59.533
*N *11465:12 *C 31.892 59.387
*N *11465:13 *C 31.892 59.344
*N *11465:14 *C 27.940 59.344
*N *11465:15 *C 27.940 59.301
*N *11465:16 *C 27.940 56.956
*N *11465:17 *C 27.940 56.912
*N *11465:18 *C 28.700 57.824
*N *11465:19 *C 28.700 57.793
*N *11465:20 *C 28.700 56.956
*N *11465:21 *C 28.700 56.912
*N *11465:22 *C 29.460 56.912
*N *11465:23 *C 29.460 56.869
*N *11465:24 *C 29.460 55.132
*N *11465:25 *C 29.460 55.088

*CAP
0 *263:Y 0.01605158
1 *260:A1 0.01576014
2 *262:A2 0.01731159
3 *258:A1 0.001
4 *256:A3 0.01383704
5 *11465:5 0.007610843
6 *11465:6 0.02981382
7 *11465:7 0.02892336
8 *11465:8 0.03853676
9 *11465:9 0.008535405
10 *11465:10 0.01108539
11 *11465:11 0.01293796
12 *11465:12 0.0120475
13 *11465:13 0.1672028
14 *11465:14 0.1632457
15 *11465:15 0.1501137
16 *11465:16 0.1377734
17 *11465:17 0.07303579
18 *11465:18 0.009533947
19 *11465:19 0.06177116
20 *11465:20 0.06088071
21 *11465:21 0.0747869
22 *11465:22 0.04308415
23 *11465:23 0.1191018
24 *11465:24 0.1199923
25 *11465:25 0.02852657

*RES
0 *263:Y *11465:25 0.304
1 *11465:20 *11465:19 1.495536
2 *11465:21 *11465:20 0.25
3 *11465:21 *11465:17 1.357143
4 *11465:18 *260:A1 0.1916667
5 *11465:19 *11465:18 0.5
6 *11465:16 *11465:15 4.1875
7 *11465:17 *11465:16 0.25
8 *11465:17 *11465:8 1.357143
9 *11465:23 *11465:22 0.25
10 *11465:22 *11465:21 1.357143
11 *11465:25 *11465:24 0.5
12 *11465:24 *11465:23 3.101786
13 *11465:15 *11465:14 0.25
14 *11465:15 *11465:9 0.1
15 *11465:14 *11465:13 7.057143
16 *11465:12 *11465:11 0.2433334
17 *11465:13 *11465:12 0.25
18 *11465:10 *262:A2 0.08181819
19 *11465:11 *11465:10 0.5
20 *11465:9 *258:A1 1
21 *11465:7 *11465:6 0.9428573
22 *11465:8 *11465:7 0.25
23 *11465:5 *256:A3 0.08181819
24 *11465:6 *11465:5 0.5

*END

*D_NET *11466 1.163009 //LENGTH 14.344 DR

*CONN
*I *258:Y O *L 0.000 *C 27.940 60.164
*I *289:A I *L 0.588 *C 24.748 62.748
*I *257:A4 I *L 0.575 *C 22.620 68.043
*N *11466:3 *C 22.620 67.983
*N *11466:4 *C 22.620 67.940
*N *11466:5 *C 22.620 67.596
*N *11466:6 *C 22.620 67.552
*N *11466:7 *C 24.748 67.552
*N *11466:8 *C 24.748 67.509
*N *11466:9 *C 24.748 62.792
*N *11466:10 *C 24.748 62.688
*N *11466:11 *C 27.788 62.688
*N *11466:12 *C 27.788 62.645
*N *11466:13 *C 27.728 60.164
*N *11466:14 *C 27.773 60.164

*CAP
0 *258:Y 0.02421898
1 *289:A 0.001
2 *257:A4 0.02039016
3 *11466:3 0.01416396
4 *11466:4 0.03296984
5 *11466:5 0.03207938
6 *11466:6 0.08180021
7 *11466:7 0.08112401
8 *11466:8 0.1969357
9 *11466:9 0.192266
10 *11466:10 0.1277287
11 *11466:11 0.1285171
12 *11466:12 0.09899199
13 *11466:13 0.1128307
14 *11466:14 0.01799279

*RES
0 *258:Y *11466:14 0.334
1 *11466:9 *289:A 0.5
2 *11466:9 *11466:8 8.423215
3 *11466:8 *11466:7 0.25
4 *11466:7 *11466:6 3.8
5 *11466:5 *11466:4 0.6142858
6 *11466:6 *11466:5 0.25
7 *11466:3 *257:A4 0.08181817
8 *11466:4 *11466:3 0.5
9 *11466:10 *11466:9 0.25
10 *11466:12 *11466:11 0.25
11 *11466:11 *11466:10 5.428572
12 *11466:14 *11466:13 0.5
13 *11466:13 *11466:12 4.429465

*END

*D_NET *11467 0.9514996 //LENGTH 9.900 DR

*CONN
*I *260:Y O *L 0.000 *C 28.700 58.492
*I *290:A I *L 0.588 *C 27.028 61.228
*I *259:A4 I *L 0.575 *C 25.812 64.699
*N *11467:3 *C 25.812 64.639
*N *11467:4 *C 25.812 64.596
*N *11467:5 *C 25.812 61.212
*N *11467:6 *C 25.812 61.168
*N *11467:7 *C 27.028 61.168
*N *11467:8 *C 27.028 61.155
*N *11467:9 *C 26.968 58.492
*N *11467:10 *C 27.013 58.492

*CAP
0 *260:Y 0.1218108
1 *290:A 0.001
2 *259:A4 0.01952097
3 *11467:3 0.01329477
4 *11467:4 0.1893477
5 *11467:5 0.1884573
6 *11467:6 0.04900199
7 *11467:7 0.04900199
8 *11467:8 0.09502414
9 *11467:9 0.1094552
10 *11467:10 0.1155846

*RES
0 *260:Y *11467:10 3.374
1 *11467:8 *290:A 0.5
2 *11467:8 *11467:7 0.25
3 *11467:7 *11467:6 2.171429
4 *11467:5 *11467:4 6.042858
5 *11467:6 *11467:5 0.25
6 *11467:3 *259:A4 0.08181819
7 *11467:4 *11467:3 0.5
8 *11467:10 *11467:9 0.5
9 *11467:9 *11467:8 4.754465

*END

*D_NET *11468 0.4016849 //LENGTH 4.584 DR

*CONN
*I *262:Y O *L 0.000 *C 31.740 60.104
*I *282:A I *L 0.588 *C 30.524 61.228
*I *261:A4 I *L 0.575 *C 30.220 62.596
*N *11468:3 *C 30.220 62.596
*N *11468:4 *C 30.220 61.516
*N *11468:5 *C 30.220 61.472
*N *11468:6 *C 30.524 61.532
*N *11468:7 *C 30.524 61.168
*N *11468:8 *C 30.524 61.168
*N *11468:9 *C 30.524 60.895
*N *11468:10 *C 30.524 60.821
*N *11468:11 *C 30.524 60.164
*N *11468:12 *C 31.740 60.104

*CAP
0 *262:Y 0.001
1 *282:A 0.001
2 *261:A4 0.001
3 *11468:3 0.06695451
4 *11468:4 0.05470193
5 *11468:5 0.01637334
6 *11468:6 0.02779489
7 *11468:7 0.001
8 *11468:8 0.03027499
9 *11468:9 0.006811215
10 *11468:10 0.0278895
11 *11468:11 0.09765819
12 *11468:12 0.06922633

*RES
0 *262:Y *11468:12 0.5
1 *11468:10 *11468:9 0.25
2 *11468:9 *11468:8 0.6571429
3 *11468:12 *11468:11 2.171429
4 *11468:7 *282:A 0.5
5 *11468:8 *11468:7 0.25
6 *11468:8 *11468:6 0.65
7 *11468:4 *11468:3 1.929464
8 *11468:5 *11468:4 0.25
9 *11468:3 *261:A4 0.5
10 *11468:11 *11468:10 1.172322
11 *11468:6 *11468:5 0.5428572

*END

*D_NET *11469 1.101731 //LENGTH 13.306 DR

*CONN
*I *274:Y O *L 0.000 *C 35.692 52.599
*I *268:A3 I *L 0.459 *C 34.932 56.089
*I *273:A1 I *L 0.548 *C 29.612 52.745
*I *263:A2 I *L 0.542 *C 30.220 54.580
*N *11469:4 *C 30.220 54.600
*N *11469:5 *C 30.220 54.600
*N *11469:6 *C 30.220 54.480
*N *11469:7 *C 30.220 54.480
*N *11469:8 *C 29.612 54.480
*N *11469:9 *C 29.612 54.437
*N *11469:10 *C 29.612 52.656
*N *11469:11 *C 29.612 52.656
*N *11469:12 *C 29.612 52.656
*N *11469:13 *C 34.932 56.000
*N *11469:14 *C 34.932 55.957
*N *11469:15 *C 34.932 52.700
*N *11469:16 *C 34.932 52.656
*N *11469:17 *C 35.692 52.656
*N *11469:18 *C 35.692 52.599

*CAP
0 *274:Y 0.001
1 *268:A3 0.01295985
2 *273:A1 0.01408795
3 *263:A2 0.01428871
4 *11469:4 0.008062516
5 *11469:5 0.009953924
6 *11469:6 0.008493629
7 *11469:7 0.02942819
8 *11469:8 0.02942819
9 *11469:9 0.0981232
10 *11469:10 0.00786176
11 *11469:11 0.09907667
12 *11469:12 0.2028278
13 *11469:13 0.00673366
14 *11469:14 0.1444039
15 *11469:15 0.1435134
16 *11469:16 0.2309063
17 *11469:17 0.03958165
18 *11469:18 0.001

*RES
0 *274:Y *11469:18 0.5
1 *11469:10 *273:A1 0.08181817
2 *11469:11 *11469:10 0.5
3 *11469:11 *11469:9 3.179464
4 *11469:12 *11469:11 0.25
5 *11469:18 *11469:17 0.25
6 *11469:17 *11469:16 1.357143
7 *11469:9 *11469:8 0.25
8 *11469:8 *11469:7 1.085714
9 *11469:6 *11469:5 0.325
10 *11469:7 *11469:6 0.25
11 *11469:4 *263:A2 0.08181819
12 *11469:5 *11469:4 0.5
13 *11469:15 *11469:14 5.89375
14 *11469:16 *11469:15 0.25
15 *11469:16 *11469:12 9.500001
16 *11469:13 *268:A3 0.08181819
17 *11469:14 *11469:13 0.5

*END

*D_NET *11470 0.6008409 //LENGTH 7.103 DR

*CONN
*I *265:Y O *L 0.000 *C 34.780 60.012
*I *264:A4 I *L 0.575 *C 36.756 61.355
*I *291:A I *L 0.588 *C 38.732 59.404
*N *11470:3 *C 38.732 59.448
*N *11470:4 *C 38.732 59.909
*N *11470:5 *C 38.732 59.952
*N *11470:6 *C 36.816 61.355
*N *11470:7 *C 36.816 61.355
*N *11470:8 *C 36.756 59.996
*N *11470:9 *C 36.756 59.952
*N *11470:10 *C 34.780 59.952
*N *11470:11 *C 34.780 59.952
*N *11470:12 *C 34.840 60.012
*N *11470:13 *C 34.840 60.012

*CAP
0 *265:Y 0.01548188
1 *264:A4 0.01737558
2 *291:A 0.001
3 *11470:3 0.02838335
4 *11470:4 0.02593634
5 *11470:5 0.07219976
6 *11470:6 0.01114939
7 *11470:7 0.08783565
8 *11470:8 0.07275242
9 *11470:9 0.1514012
10 *11470:10 0.0806108
11 *11470:11 0.01029565
12 *11470:12 0.01716318
13 *11470:13 0.009255684

*RES
0 *265:Y *11470:13 0.1916667
1 *11470:4 *11470:3 0.8232143
2 *11470:5 *11470:4 0.25
3 *11470:3 *291:A 0.5
4 *11470:8 *11470:7 2.427679
5 *11470:9 *11470:8 0.25
6 *11470:9 *11470:5 3.528572
7 *11470:6 *264:A4 0.1916667
8 *11470:7 *11470:6 0.5
9 *11470:11 *11470:10 0.25
10 *11470:10 *11470:9 3.528571
11 *11470:13 *11470:12 0.5
12 *11470:12 *11470:11 0.1

*END

*D_NET *11471 0.5622928 //LENGTH 6.428 DR

*CONN
*I *268:Y O *L 0.000 *C 35.692 56.668
*I *265:A1 I *L 0.552 *C 34.616 59.748
*I *267:A1 I *L 0.552 *C 36.136 59.748
*N *11471:3 *C 36.088 59.708
*N *11471:4 *C 36.088 59.708
*N *11471:5 *C 36.148 59.100
*N *11471:6 *C 34.568 59.708
*N *11471:7 *C 34.568 59.708
*N *11471:8 *C 34.628 59.084
*N *11471:9 *C 34.628 59.040
*N *11471:10 *C 35.996 59.040
*N *11471:11 *C 35.997 59.100
*N *11471:12 *C 35.936 56.668
*N *11471:13 *C 35.891 56.668

*CAP
0 *268:Y 0.02090565
1 *265:A1 0.01484906
2 *267:A1 0.01496544
3 *11471:3 0.008739251
4 *11471:4 0.03805897
5 *11471:5 0.04389241
6 *11471:6 0.008622864
7 *11471:7 0.04051793
8 *11471:8 0.03285094
9 *11471:9 0.06360079
10 *11471:10 0.0618832
11 *11471:11 0.09764005
12 *11471:12 0.1010868
13 *11471:13 0.01467946

*RES
0 *268:Y *11471:13 0.398
1 *11471:11 *11471:10 0.25
2 *11471:11 *11471:5 0.2696429
3 *11471:10 *11471:9 2.442857
4 *11471:8 *11471:7 1.115179
5 *11471:9 *11471:8 0.25
6 *11471:6 *265:A1 0.08181819
7 *11471:7 *11471:6 0.5
8 *11471:13 *11471:12 0.5
9 *11471:12 *11471:11 4.342858
10 *11471:3 *267:A1 0.08181819
11 *11471:4 *11471:3 0.5
12 *11471:5 *11471:4 1.085714

*END

*D_NET *11472 0.9088109 //LENGTH 9.076 DR

*CONN
*I *267:Y O *L 0.000 *C 36.300 60.152
*I *292:A I *L 0.588 *C 40.089 61.258
*I *266:A4 I *L 0.575 *C 40.860 62.596
*N *11472:3 *C 40.860 62.656
*N *11472:4 *C 40.860 62.625
*N *11472:5 *C 40.860 60.604
*N *11472:6 *C 40.860 60.560
*N *11472:7 *C 39.931 61.228
*N *11472:8 *C 39.888 61.228
*N *11472:9 *C 39.948 60.604
*N *11472:10 *C 39.948 60.560
*N *11472:11 *C 36.300 60.560
*N *11472:12 *C 36.300 60.517
*N *11472:13 *C 36.360 60.164
*N *11472:14 *C 36.360 60.164

*CAP
0 *267:Y 0.0195338
1 *292:A 0.01918792
2 *266:A4 0.01731658
3 *11472:3 0.01109038
4 *11472:4 0.1289161
5 *11472:5 0.1280257
6 *11472:6 0.04427417
7 *11472:7 0.01296172
8 *11472:8 0.06086998
9 *11472:9 0.04326106
10 *11472:10 0.1992261
11 *11472:11 0.1603165
12 *11472:12 0.02039565
13 *11472:13 0.03012745
14 *11472:14 0.01330761

*RES
0 *267:Y *11472:14 0.08181819
1 *11472:9 *11472:8 1.115179
2 *11472:10 *11472:9 0.25
3 *11472:10 *11472:6 1.628572
4 *11472:7 *292:A 0.2633334
5 *11472:8 *11472:7 0.5
6 *11472:5 *11472:4 3.609822
7 *11472:6 *11472:5 0.25
8 *11472:3 *266:A4 0.1916667
9 *11472:4 *11472:3 0.5
10 *11472:12 *11472:11 0.25
11 *11472:11 *11472:10 6.514286
12 *11472:14 *11472:13 0.5
13 *11472:13 *11472:12 0.6294643

*END

*D_NET *11473 0.9858804 //LENGTH 10.287 DR

*CONN
*I *270:Y O *L 0.000 *C 25.508 50.448
*I *269:A4 I *L 0.575 *C 22.012 47.979
*I *287:A I *L 0.588 *C 21.404 46.028
*N *11473:3 *C 21.404 46.072
*N *11473:4 *C 21.404 46.533
*N *11473:5 *C 21.404 46.576
*N *11473:6 *C 22.164 46.576
*N *11473:7 *C 22.164 46.620
*N *11473:8 *C 22.012 47.919
*N *11473:9 *C 22.012 47.963
*N *11473:10 *C 22.012 48.156
*N *11473:11 *C 22.164 48.053
*N *11473:12 *C 22.164 48.096
*N *11473:13 *C 25.508 48.096
*N *11473:14 *C 25.508 48.140
*N *11473:15 *C 25.448 50.436
*N *11473:16 *C 25.448 50.436

*CAP
0 *270:Y 0.0195963
1 *269:A4 0.01591337
2 *287:A 0.001
3 *11473:3 0.0323598
4 *11473:4 0.0299128
5 *11473:5 0.04828556
6 *11473:6 0.04828556
7 *11473:7 0.1031523
8 *11473:8 0.009687175
9 *11473:9 0.02125189
10 *11473:10 0.0360334
11 *11473:11 0.1117076
12 *11473:12 0.1453253
13 *11473:13 0.1410924
14 *11473:14 0.1006076
15 *11473:15 0.1082992
16 *11473:16 0.0133701

*RES
0 *270:Y *11473:16 0.08181819
1 *11473:11 *11473:10 0.2714286
2 *11473:11 *11473:7 2.558929
3 *11473:12 *11473:11 0.25
4 *11473:14 *11473:13 0.25
5 *11473:13 *11473:12 5.971429
6 *11473:16 *11473:15 0.5
7 *11473:15 *11473:14 4.35
8 *11473:8 *269:A4 0.08181819
9 *11473:9 *11473:8 0.5
10 *11473:7 *11473:6 0.25
11 *11473:6 *11473:5 1.357143
12 *11473:4 *11473:3 0.8232143
13 *11473:5 *11473:4 0.25
14 *11473:3 *287:A 0.5
15 *11473:10 *11473:9 0.3455358

*END

*D_NET *11474 0.6462025 //LENGTH 7.703 DR

*CONN
*I *273:Y O *L 0.000 *C 28.974 52.731
*I *272:A1 I *L 0.552 *C 26.737 54.276
*I *270:A1 I *L 0.552 *C 25.673 50.932
*N *11474:3 *C 25.720 50.892
*N *11474:4 *C 25.720 50.892
*N *11474:5 *C 25.660 52.613
*N *11474:6 *C 25.660 52.656
*N *11474:7 *C 26.784 54.236
*N *11474:8 *C 26.784 54.236
*N *11474:9 *C 26.724 52.700
*N *11474:10 *C 26.724 52.656
*N *11474:11 *C 28.548 52.656
*N *11474:12 *C 28.548 52.656
*N *11474:13 *C 28.608 52.716
*N *11474:14 *C 28.653 52.716

*CAP
0 *273:Y 0.02559087
1 *272:A1 0.01952401
2 *270:A1 0.01350395
3 *11474:3 0.007277759
4 *11474:4 0.08474637
5 *11474:5 0.07531897
6 *11474:6 0.04119518
7 *11474:7 0.01329781
8 *11474:8 0.07066404
9 *11474:9 0.06326187
10 *11474:10 0.1073433
11 *11474:11 0.06892762
12 *11474:12 0.01263554
13 *11474:13 0.0235505
14 *11474:14 0.01936468

*RES
0 *273:Y *11474:14 0.6420001
1 *11474:9 *11474:8 2.74375
2 *11474:10 *11474:9 0.25
3 *11474:10 *11474:6 1.9
4 *11474:7 *272:A1 0.08181819
5 *11474:8 *11474:7 0.5
6 *11474:12 *11474:11 0.25
7 *11474:11 *11474:10 3.257143
8 *11474:14 *11474:13 0.5
9 *11474:13 *11474:12 0.1
10 *11474:5 *11474:4 3.072322
11 *11474:6 *11474:5 0.25
12 *11474:3 *270:A1 0.08181819
13 *11474:4 *11474:3 0.5

*END

*D_NET *11475 0.7216063 //LENGTH 8.079 DR

*CONN
*I *272:Y O *L 0.000 *C 26.532 54.363
*I *288:A I *L 0.588 *C 24.444 54.540
*I *271:A4 I *L 0.575 *C 20.340 54.667
*N *11475:3 *C 20.400 54.667
*N *11475:4 *C 20.400 54.667
*N *11475:5 *C 20.340 54.340
*N *11475:6 *C 20.340 54.296
*N *11475:7 *C 24.444 54.497
*N *11475:8 *C 24.444 54.220
*N *11475:9 *C 24.444 54.176
*N *11475:10 *C 25.812 54.176
*N *11475:11 *C 25.812 54.219
*N *11475:12 *C 25.872 54.363
*N *11475:13 *C 25.917 54.363

*CAP
0 *272:Y 0.0561234
1 *288:A 0.001
2 *271:A4 0.01678804
3 *11475:3 0.01056184
4 *11475:4 0.04365784
5 *11475:5 0.0255923
6 *11475:6 0.1821477
7 *11475:7 0.01789231
8 *11475:8 0.0154453
9 *11475:9 0.2238833
10 *11475:10 0.05083751
11 *11475:11 0.007572089
12 *11475:12 0.02020754
13 *11475:13 0.04989721

*RES
0 *272:Y *11475:13 1.23
1 *11475:8 *11475:7 0.4946429
2 *11475:9 *11475:8 0.25
3 *11475:9 *11475:6 7.328572
4 *11475:7 *288:A 0.5
5 *11475:11 *11475:10 0.25
6 *11475:10 *11475:9 2.442857
7 *11475:13 *11475:12 0.5
8 *11475:12 *11475:11 0.3025
9 *11475:5 *11475:4 0.5848215
10 *11475:6 *11475:5 0.25
11 *11475:3 *271:A4 0.1916667
12 *11475:4 *11475:3 0.5

*END

*D_NET *11476 0.4008511 //LENGTH 4.620 DR

*CONN
*I *277:Y O *L 0.000 *C 34.020 53.932
*I *274:A2 I *L 0.459 *C 36.452 52.756
*N *11476:2 *C 36.452 52.776
*N *11476:3 *C 36.452 52.820
*N *11476:4 *C 36.452 53.324
*N *11476:5 *C 36.300 53.324
*N *11476:6 *C 36.300 53.829
*N *11476:7 *C 36.300 53.872
*N *11476:8 *C 34.020 53.872
*N *11476:9 *C 34.020 53.872
*N *11476:10 *C 34.080 53.932
*N *11476:11 *C 34.080 53.932

*CAP
0 *277:Y 0.01411287
1 *274:A2 0.01438791
2 *11476:2 0.008161714
3 *11476:3 0.03598673
4 *11476:4 0.05098772
5 *11476:5 0.0427329
6 *11476:6 0.02684144
7 *11476:7 0.08914702
8 *11476:8 0.08771608
9 *11476:9 0.008425988
10 *11476:10 0.01446404
11 *11476:11 0.007886674

*RES
0 *277:Y *11476:11 0.1916667
1 *11476:11 *11476:10 0.5
2 *11476:10 *11476:9 0.1
3 *11476:9 *11476:8 0.25
4 *11476:8 *11476:7 4.071428
5 *11476:6 *11476:5 0.9008929
6 *11476:7 *11476:6 0.25
7 *11476:2 *274:A2 0.1036364
8 *11476:3 *11476:2 0.5
9 *11476:5 *11476:4 0.2714286
10 *11476:4 *11476:3 0.9357143

*END

*D_NET *11477 0.5101838 //LENGTH 6.148 DR

*CONN
*I *275:Y O *L 0.000 *C 34.324 49.980
*I *274:A4 I *L 0.447 *C 36.756 52.744
*N *11477:2 *C 36.756 52.656
*N *11477:3 *C 36.756 52.613
*N *11477:4 *C 36.756 49.964
*N *11477:5 *C 36.756 49.920
*N *11477:6 *C 34.324 49.920
*N *11477:7 *C 34.324 49.920
*N *11477:8 *C 34.384 49.980
*N *11477:9 *C 34.384 49.980

*CAP
0 *275:Y 0.01403519
1 *274:A4 0.01245093
2 *11477:2 0.006224731
3 *11477:3 0.1255967
4 *11477:4 0.1247062
5 *11477:5 0.0993674
6 *11477:6 0.09771024
7 *11477:7 0.008371259
8 *11477:8 0.01391216
9 *11477:9 0.007808998

*RES
0 *275:Y *11477:9 0.1916667
1 *11477:9 *11477:8 0.5
2 *11477:8 *11477:7 0.1
3 *11477:7 *11477:6 0.25
4 *11477:6 *11477:5 4.421429
5 *11477:4 *11477:3 4.730357
6 *11477:5 *11477:4 0.25
7 *11477:2 *274:A4 0.08181818
8 *11477:3 *11477:2 0.5

*END

*D_NET *11478 0.2256112 //LENGTH 2.406 DR

*CONN
*I *276:Y O *L 0.000 *C 32.804 50.588
*I *275:A1 I *L 0.550 *C 33.230 49.372
*N *11478:2 *C 32.637 49.372
*N *11478:3 *C 32.592 49.372
*N *11478:4 *C 32.592 50.588
*N *11478:5 *C 32.637 50.588

*CAP
0 *276:Y 0.02036463
1 *275:A1 0.03925553
2 *11478:2 0.03302933
3 *11478:3 0.05982503
4 *11478:4 0.05899822
5 *11478:5 0.01413843

*RES
0 *276:Y *11478:5 0.3340001
1 *11478:5 *11478:4 0.5
2 *11478:4 *11478:3 2.171429
3 *11478:2 *275:A1 1.186
4 *11478:3 *11478:2 0.5

*END

*D_NET *11479 0.5335046 //LENGTH 4.527 DR

*CONN
*I *269:Y O *L 0.000 *C 21.404 48.308
*I *245:D I *L 0.547 *C 20.340 51.281
*N *11479:2 *C 20.280 51.256
*N *11479:3 *C 20.280 51.256
*N *11479:4 *C 20.280 48.308
*N *11479:5 *C 20.325 48.308

*CAP
0 *269:Y 0.07003532
1 *245:D 0.0158557
2 *11479:2 0.009629506
3 *11479:3 0.1869479
4 *11479:4 0.187227
5 *11479:5 0.06380912

*RES
0 *269:Y *11479:5 2.158
1 *11479:5 *11479:4 0.5
2 *11479:4 *11479:3 5.264286
3 *11479:2 *245:D 0.1916667
4 *11479:3 *11479:2 0.5

*END

*D_NET *11480 0.09703592 //LENGTH 1.152 DR

*CONN
*I *271:Y O *L 0.000 *C 19.732 55.056
*I *244:D I *L 0.547 *C 19.720 55.908
*N *11480:2 *C 19.672 55.908
*N *11480:3 *C 19.672 55.908
*N *11480:4 *C 19.732 55.087

*CAP
0 *271:Y 0.001
1 *244:D 0.01483942
2 *11480:2 0.00861322
3 *11480:3 0.03998845
4 *11480:4 0.03259483

*RES
0 *271:Y *11480:4 0.5
1 *11480:4 *11480:3 1.466071
2 *11480:2 *244:D 0.08181819
3 *11480:3 *11480:2 0.5

*END

*D_NET *11481 0.2439506 //LENGTH 2.247 DR

*CONN
*I *255:Y O *L 0.000 *C 19.884 60.164
*I *243:D I *L 0.547 *C 19.276 61.313
*N *11481:2 *C 19.216 61.288
*N *11481:3 *C 19.216 61.288
*N *11481:4 *C 19.216 60.164
*N *11481:5 *C 19.261 60.164

*CAP
0 *255:Y 0.05604837
1 *243:D 0.01600597
2 *11481:2 0.009779776
3 *11481:3 0.05596758
4 *11481:4 0.05632675
5 *11481:5 0.04982218

*RES
0 *255:Y *11481:5 1.368
1 *11481:5 *11481:4 0.5
2 *11481:4 *11481:3 2.007143
3 *11481:2 *243:D 0.2183333
4 *11481:3 *11481:2 0.5

*END

*D_NET *11482 0.4290943 //LENGTH 5.437 DR

*CONN
*I *257:Y O *L 0.000 *C 22.012 67.161
*I *242:D I *L 0.547 *C 19.580 64.664
*N *11482:2 *C 19.580 64.664
*N *11482:3 *C 19.580 64.816
*N *11482:4 *C 19.580 64.816
*N *11482:5 *C 22.012 64.816
*N *11482:6 *C 22.012 64.860
*N *11482:7 *C 21.952 67.156
*N *11482:8 *C 21.952 67.156

*CAP
0 *257:Y 0.01884662
1 *242:D 0.001
2 *11482:2 0.009591525
3 *11482:3 0.008591204
4 *11482:4 0.09217448
5 *11482:5 0.09338168
6 *11482:6 0.09293351
7 *11482:7 0.09995493
8 *11482:8 0.01262042

*RES
0 *257:Y *11482:8 0.08181819
1 *11482:8 *11482:7 0.5
2 *11482:7 *11482:6 4.100893
3 *11482:6 *11482:5 0.25
4 *11482:5 *11482:4 4.342858
5 *11482:3 *11482:2 0.1916667
6 *11482:4 *11482:3 0.25
7 *11482:2 *242:D 0.5

*END

*D_NET *11483 0.1594315 //LENGTH 1.750 DR

*CONN
*I *259:Y O *L 0.000 *C 25.204 65.088
*I *241:D I *L 0.547 *C 25.782 65.940
*N *11483:2 *C 25.189 65.940
*N *11483:3 *C 25.144 65.940
*N *11483:4 *C 25.204 65.119

*CAP
0 *259:Y 0.001
1 *241:D 0.04135143
2 *11483:2 0.03512523
3 *11483:3 0.04721363
4 *11483:4 0.03474125

*RES
0 *259:Y *11483:4 0.5
1 *11483:4 *11483:3 1.466072
2 *11483:2 *241:D 1.186
3 *11483:3 *11483:2 0.5

*END

*D_NET *11484 0.3754525 //LENGTH 4.179 DR

*CONN
*I *261:Y O *L 0.000 *C 29.612 63.356
*I *240:D I *L 0.547 *C 30.360 65.940
*N *11484:2 *C 30.312 65.940
*N *11484:3 *C 30.312 65.940
*N *11484:4 *C 30.372 63.460
*N *11484:5 *C 30.372 63.416
*N *11484:6 *C 29.612 63.296
*N *11484:7 *C 29.612 63.296
*N *11484:8 *C 29.552 63.356
*N *11484:9 *C 29.552 63.356

*CAP
0 *261:Y 0.01419209
1 *240:D 0.01886472
2 *11484:2 0.01263853
3 *11484:3 0.1119215
4 *11484:4 0.1041738
5 *11484:5 0.04008419
6 *11484:6 0.04204266
7 *11484:7 0.008953439
8 *11484:8 0.01461568
9 *11484:9 0.007965893

*RES
0 *261:Y *11484:9 0.1916667
1 *11484:9 *11484:8 0.5
2 *11484:8 *11484:7 0.1
3 *11484:7 *11484:6 0.25
4 *11484:6 *11484:5 1.407143
5 *11484:4 *11484:3 4.429465
6 *11484:5 *11484:4 0.25
7 *11484:2 *240:D 0.08181819
8 *11484:3 *11484:2 0.5

*END

*D_NET *11485 0.4779941 //LENGTH 5.961 DR

*CONN
*I *264:Y O *L 0.000 *C 36.148 60.827
*I *239:D I *L 0.547 *C 34.932 64.657
*N *11485:2 *C 34.872 64.632
*N *11485:3 *C 34.872 64.632
*N *11485:4 *C 34.932 61.212
*N *11485:5 *C 34.932 61.168
*N *11485:6 *C 36.148 61.168
*N *11485:7 *C 36.148 61.125
*N *11485:8 *C 36.088 60.797
*N *11485:9 *C 36.088 60.797

*CAP
0 *264:Y 0.01498868
1 *239:D 0.01449739
2 *11485:2 0.008271198
3 *11485:3 0.1446631
4 *11485:4 0.1325976
5 *11485:5 0.05158371
6 *11485:6 0.05308248
7 *11485:7 0.01780632
8 *11485:8 0.03174102
9 *11485:9 0.008762488

*RES
0 *264:Y *11485:9 0.1916667
1 *11485:9 *11485:8 0.5
2 *11485:8 *11485:7 0.5848215
3 *11485:7 *11485:6 0.25
4 *11485:6 *11485:5 2.171429
5 *11485:4 *11485:3 6.108036
6 *11485:5 *11485:4 0.25
7 *11485:2 *239:D 0.1916667
8 *11485:3 *11485:2 0.5

*END

*D_NET *11486 0.2717357 //LENGTH 2.673 DR

*CONN
*I *266:Y O *L 0.000 *C 40.252 63.448
*I *238:D I *L 0.547 *C 39.188 64.664
*N *11486:2 *C 39.188 64.664
*N *11486:3 *C 39.188 64.512
*N *11486:4 *C 39.188 64.512
*N *11486:5 *C 40.252 64.512
*N *11486:6 *C 40.252 64.469
*N *11486:7 *C 40.252 63.479

*CAP
0 *266:Y 0.001
1 *238:D 0.001
2 *11486:2 0.0111438
3 *11486:3 0.01015741
4 *11486:4 0.05517567
5 *11486:5 0.05220382
6 *11486:6 0.07050318
7 *11486:7 0.07055181

*RES
0 *266:Y *11486:7 0.5
1 *11486:7 *11486:6 1.766964
2 *11486:6 *11486:5 0.25
3 *11486:5 *11486:4 1.9
4 *11486:3 *11486:2 0.1916667
5 *11486:4 *11486:3 0.25
6 *11486:2 *238:D 0.5

*END

*D_NET *11487 1.320903 //LENGTH 14.302 DR

*CONN
*I *296:Y O *L 0.000 *C 35.692 46.788
*I *274:A3 I *L 0.460 *C 36.604 53.020
*I *212:A3 I *L 0.459 *C 40.544 54.567
*N *11487:3 *C 40.387 54.540
*N *11487:4 *C 40.344 54.540
*N *11487:5 *C 40.404 52.396
*N *11487:6 *C 40.404 52.352
*N *11487:7 *C 36.604 52.977
*N *11487:8 *C 36.604 52.396
*N *11487:9 *C 36.604 52.352
*N *11487:10 *C 35.844 52.352
*N *11487:11 *C 35.844 52.309
*N *11487:12 *C 35.904 46.788
*N *11487:13 *C 35.859 46.788

*CAP
0 *296:Y 0.02408275
1 *274:A3 0.001
2 *212:A3 0.02133972
3 *11487:3 0.01511352
4 *11487:4 0.1302286
5 *11487:5 0.1141635
6 *11487:6 0.1524364
7 *11487:7 0.04833139
8 *11487:8 0.04501963
9 *11487:9 0.1817198
10 *11487:10 0.03407017
11 *11487:11 0.2611408
12 *11487:12 0.2744003
13 *11487:13 0.01785655

*RES
0 *296:Y *11487:13 0.3340001
1 *11487:8 *11487:7 1.0375
2 *11487:9 *11487:8 0.25
3 *11487:9 *11487:6 6.785715
4 *11487:7 *274:A3 0.5
5 *11487:11 *11487:10 0.25
6 *11487:10 *11487:9 1.357143
7 *11487:13 *11487:12 0.5
8 *11487:12 *11487:11 9.858036
9 *11487:5 *11487:4 3.829464
10 *11487:6 *11487:5 0.25
11 *11487:3 *212:A3 0.2616667
12 *11487:4 *11487:3 0.5

*END

*D_NET *11488 0.4867058 //LENGTH 5.103 DR

*CONN
*I *284:Y O *L 0.000 *C 28.852 47.092
*I *160:D I *L 0.547 *C 26.256 45.973
*N *11488:2 *C 26.099 45.968
*N *11488:3 *C 26.056 45.968
*N *11488:4 *C 26.116 46.533
*N *11488:5 *C 26.116 46.576
*N *11488:6 *C 29.004 46.576
*N *11488:7 *C 29.004 46.620
*N *11488:8 *C 29.064 47.092
*N *11488:9 *C 29.019 47.092

*CAP
0 *284:Y 0.02368171
1 *160:D 0.02158933
2 *11488:2 0.01536314
3 *11488:3 0.05800195
4 *11488:4 0.04030007
5 *11488:5 0.1237128
6 *11488:6 0.120762
7 *11488:7 0.02557368
8 *11488:8 0.04026559
9 *11488:9 0.01745552

*RES
0 *284:Y *11488:9 0.3340001
1 *11488:9 *11488:8 0.5
2 *11488:8 *11488:7 0.84375
3 *11488:7 *11488:6 0.25
4 *11488:6 *11488:5 5.157143
5 *11488:4 *11488:3 1.008036
6 *11488:5 *11488:4 0.25
7 *11488:2 *160:D 0.2616667
8 *11488:3 *11488:2 0.5

*END

*D_NET *11489 0.3932277 //LENGTH 4.055 DR

*CONN
*I *288:Y O *L 0.000 *C 24.140 54.727
*I *271:A1 I *L 0.513 *C 20.674 54.540
*N *11489:2 *C 20.888 54.540
*N *11489:3 *C 20.888 54.540
*N *11489:4 *C 20.948 54.801
*N *11489:5 *C 20.948 54.844
*N *11489:6 *C 24.140 54.784
*N *11489:7 *C 24.140 54.727

*CAP
0 *288:Y 0.001
1 *271:A1 0.02227911
2 *11489:2 0.0322907
3 *11489:3 0.03447453
4 *11489:4 0.02105406
5 *11489:5 0.1414878
6 *11489:6 0.1396416
7 *11489:7 0.001

*RES
0 *288:Y *11489:7 0.5
1 *11489:7 *11489:6 0.25
2 *11489:6 *11489:5 5.7
3 *11489:4 *11489:3 0.4651786
4 *11489:5 *11489:4 0.25
5 *11489:2 *271:A1 0.4280001
6 *11489:3 *11489:2 0.5

*END

*D_NET *11490 0.3398413 //LENGTH 3.493 DR

*CONN
*I *287:Y O *L 0.000 *C 21.252 46.484
*I *269:A1 I *L 0.513 *C 22.316 47.840
*N *11490:2 *C 22.316 47.670
*N *11490:3 *C 22.316 47.792
*N *11490:4 *C 22.316 47.792
*N *11490:5 *C 22.316 47.792
*N *11490:6 *C 21.100 47.792
*N *11490:7 *C 21.100 47.749
*N *11490:8 *C 21.040 46.484
*N *11490:9 *C 21.085 46.484

*CAP
0 *287:Y 0.01866892
1 *269:A1 0.0142368
2 *11490:2 0.01419085
3 *11490:3 0.008010609
4 *11490:4 0.007974471
5 *11490:5 0.06609507
6 *11490:6 0.06609507
7 *11490:7 0.05929141
8 *11490:8 0.07283541
9 *11490:9 0.01244272

*RES
0 *287:Y *11490:9 0.3340001
1 *11490:9 *11490:8 0.5
2 *11490:8 *11490:7 2.258036
3 *11490:7 *11490:6 0.25
4 *11490:6 *11490:5 2.171428
5 *11490:4 *11490:3 0.5
6 *11490:4 *11490:2 0.2033333
7 *11490:5 *11490:4 0.25
8 *11490:3 *269:A1 0.08181819

*END

*D_NET *11491 0.2897474 //LENGTH 2.497 DR

*CONN
*I *292:Y O *L 0.000 *C 40.434 61.399
*I *266:A1 I *L 0.513 *C 41.177 62.748
*N *11491:2 *C 41.224 62.748
*N *11491:3 *C 41.224 62.748
*N *11491:4 *C 41.224 61.421
*N *11491:5 *C 41.179 61.421

*CAP
0 *292:Y 0.04872099
1 *266:A1 0.01572794
2 *11491:2 0.009501748
3 *11491:3 0.08284068
4 *11491:4 0.09046121
5 *11491:5 0.04249479

*RES
0 *292:Y *11491:5 1.49
1 *11491:5 *11491:4 0.5
2 *11491:4 *11491:3 2.369643
3 *11491:2 *266:A1 0.08181819
4 *11491:3 *11491:2 0.5

*END

*D_NET *11492 0.3013261 //LENGTH 3.198 DR

*CONN
*I *291:Y O *L 0.000 *C 38.580 59.860
*I *264:A1 I *L 0.513 *C 37.090 61.228
*N *11492:2 *C 38.323 61.228
*N *11492:3 *C 38.368 61.228
*N *11492:4 *C 38.368 59.860
*N *11492:5 *C 38.413 59.860

*CAP
0 *291:Y 0.01764959
1 *264:A1 0.07200861
2 *11492:2 0.06578241
3 *11492:3 0.06694379
4 *11492:4 0.06751828
5 *11492:5 0.01142339

*RES
0 *291:Y *11492:5 0.36
1 *11492:5 *11492:4 0.5
2 *11492:4 *11492:3 2.442857
3 *11492:2 *264:A1 2.62
4 *11492:3 *11492:2 0.5

*END

*D_NET *11493 0.1903361 //LENGTH 2.097 DR

*CONN
*I *282:Y O *L 0.000 *C 30.828 61.396
*I *261:A1 I *L 0.513 *C 30.464 62.748
*N *11493:2 *C 30.508 62.748
*N *11493:3 *C 30.828 62.748
*N *11493:4 *C 30.828 61.525
*N *11493:5 *C 30.828 61.481

*CAP
0 *282:Y 0.01631388
1 *261:A1 0.001
2 *11493:2 0.01529366
3 *11493:3 0.08726108
4 *11493:4 0.06037978
5 *11493:5 0.01008768

*RES
0 *282:Y *11493:5 0.08181819
1 *11493:5 *11493:4 0.5
2 *11493:4 *11493:3 2.184821
3 *11493:2 *261:A1 0.5
4 *11493:3 *11493:2 0.7642857

*END

*D_NET *11494 0.4276687 //LENGTH 3.989 DR

*CONN
*I *290:Y O *L 0.000 *C 26.694 61.424
*I *259:A1 I *L 0.513 *C 26.056 64.572
*N *11494:2 *C 26.056 64.572
*N *11494:3 *C 26.056 61.421
*N *11494:4 *C 26.101 61.421

*CAP
0 *290:Y 0.03935478
1 *259:A1 0.001
2 *11494:2 0.1746304
3 *11494:3 0.1795549
4 *11494:4 0.03312858

*RES
0 *290:Y *11494:4 1.186
1 *11494:4 *11494:3 0.5
2 *11494:3 *11494:2 5.626787
3 *11494:2 *259:A1 0.5

*END

*D_NET *11495 0.7965884 //LENGTH 7.311 DR

*CONN
*I *289:Y O *L 0.000 *C 24.596 63.052
*I *257:A1 I *L 0.513 *C 22.864 67.916
*N *11495:2 *C 22.864 67.916
*N *11495:3 *C 22.924 63.036
*N *11495:4 *C 22.924 62.992
*N *11495:5 *C 24.596 62.992
*N *11495:6 *C 24.596 62.992
*N *11495:7 *C 24.536 63.052
*N *11495:8 *C 24.536 63.052

*CAP
0 *289:Y 0.01358351
1 *257:A1 0.001
2 *11495:2 0.3059713
3 *11495:3 0.2950216
4 *11495:4 0.06736281
5 *11495:5 0.06935444
6 *11495:6 0.01315109
7 *11495:7 0.0237864
8 *11495:8 0.007357311

*RES
0 *289:Y *11495:8 0.1916667
1 *11495:8 *11495:7 0.5
2 *11495:7 *11495:6 0.1
3 *11495:6 *11495:5 0.25
4 *11495:5 *11495:4 2.985714
5 *11495:3 *11495:2 8.715179
6 *11495:4 *11495:3 0.25
7 *11495:2 *257:A1 0.5

*END

*D_NET *11496 0.4858977 //LENGTH 5.540 DR

*CONN
*I *286:Y O *L 0.000 *C 25.204 59.708
*I *255:A2 I *L 0.512 *C 20.644 59.721
*N *11496:2 *C 20.644 59.768
*N *11496:3 *C 20.644 59.768
*N *11496:4 *C 20.644 59.648
*N *11496:5 *C 20.644 59.648
*N *11496:6 *C 25.204 59.648
*N *11496:7 *C 25.204 59.648
*N *11496:8 *C 25.144 59.708
*N *11496:9 *C 25.144 59.708

*CAP
0 *286:Y 0.01345998
1 *255:A2 0.01457265
2 *11496:2 0.008346456
3 *11496:3 0.01479753
4 *11496:4 0.01408611
5 *11496:5 0.1919524
6 *11496:6 0.1935141
7 *11496:7 0.01021629
8 *11496:8 0.01771833
9 *11496:9 0.007233785

*RES
0 *286:Y *11496:9 0.1916667
1 *11496:9 *11496:8 0.5
2 *11496:8 *11496:7 0.1
3 *11496:7 *11496:6 0.25
4 *11496:6 *11496:5 8.142858
5 *11496:4 *11496:3 0.1916667
6 *11496:5 *11496:4 0.25
7 *11496:2 *255:A2 0.08181819
8 *11496:3 *11496:2 0.5

*END

*D_NET *11497 6.305629 //LENGTH 71.643 DR

*CONN
*I *283:Y O *L 0.000 *C 54.844 48.039
*I *233:RSTB I *L 0.914 *C 47.184 45.420
*I *198:RSTB I *L 0.914 *C 47.640 55.148
*I *200:RSTB I *L 0.914 *C 47.032 61.836
*I *201:RSTB I *L 0.914 *C 43.688 62.140
*I *238:RSTB I *L 0.914 *C 40.648 65.180
*I *239:RSTB I *L 0.914 *C 36.392 65.180
*I *241:RSTB I *L 0.914 *C 27.272 65.484
*I *243:RSTB I *L 0.914 *C 20.736 61.836
*I *242:RSTB I *L 0.914 *C 21.040 65.180
*I *240:RSTB I *L 0.914 *C 31.832 65.484
*I *199:RSTB I *L 0.914 *C 47.944 62.140
*I *78:RSTB I *L 0.914 *C 61.896 48.764
*N *11497:13 *C 61.896 48.764
*N *11497:14 *C 61.836 48.140
*N *11497:15 *C 61.836 48.096
*N *11497:16 *C 47.944 62.140
*N *11497:17 *C 48.004 62.080
*N *11497:18 *C 48.004 62.080
*N *11497:19 *C 31.832 65.484
*N *11497:20 *C 21.040 65.180
*N *11497:21 *C 21.100 65.120
*N *11497:22 *C 21.100 65.120
*N *11497:23 *C 20.736 61.836
*N *11497:24 *C 20.796 65.077
*N *11497:25 *C 20.796 65.180
*N *11497:26 *C 20.796 65.484
*N *11497:27 *C 27.272 65.484
*N *11497:28 *C 27.332 65.424
*N *11497:29 *C 27.332 65.424
*N *11497:30 *C 31.892 65.424
*N *11497:31 *C 31.892 65.381
*N *11497:32 *C 31.892 65.164
*N *11497:33 *C 31.892 65.120
*N *11497:34 *C 36.392 65.180
*N *11497:35 *C 36.452 65.120
*N *11497:36 *C 36.452 65.120
*N *11497:37 *C 40.648 65.180
*N *11497:38 *C 40.708 65.240
*N *11497:39 *C 40.708 65.240
*N *11497:40 *C 40.878 65.180
*N *11497:41 *C 40.920 65.180
*N *11497:42 *C 40.800 62.444
*N *11497:43 *C 40.844 62.444
*N *11497:44 *C 43.688 62.140
*N *11497:45 *C 43.748 62.341
*N *11497:46 *C 43.748 62.384
*N *11497:47 *C 47.548 62.444
*N *11497:48 *C 47.548 62.140
*N *11497:49 *C 47.548 62.037
*N *11497:50 *C 47.032 61.836
*N *11497:51 *C 47.092 61.776
*N *11497:52 *C 47.092 61.776
*N *11497:53 *C 47.548 61.776
*N *11497:54 *C 47.548 61.776
*N *11497:55 *C 47.640 55.148
*N *11497:56 *C 47.548 55.088
*N *11497:57 *C 47.548 55.088
*N *11497:58 *C 47.244 55.088
*N *11497:59 *C 47.244 55.045
*N *11497:60 *C 47.184 45.420
*N *11497:61 *C 47.244 48.096
*N *11497:62 *C 47.244 48.096
*N *11497:63 *C 54.844 48.096
*N *11497:64 *C 54.844 48.039

*CAP
0 *283:Y 0.001
1 *233:RSTB 0.001
2 *198:RSTB 0.001
3 *200:RSTB 0.001
4 *201:RSTB 0.001
5 *238:RSTB 0.001
6 *239:RSTB 0.001
7 *241:RSTB 0.001
8 *243:RSTB 0.001
9 *242:RSTB 0.001
10 *240:RSTB 0.001
11 *199:RSTB 0.001
12 *78:RSTB 0.001
13 *11497:13 0.04015891
14 *11497:14 0.02690527
15 *11497:15 0.2841586
16 *11497:16 0.01720477
17 *11497:17 0.009371361
18 *11497:18 0.02788276
19 *11497:19 0.01427604
20 *11497:20 0.02062757
21 *11497:21 0.01065969
22 *11497:22 0.02686086
23 *11497:23 0.1516158
24 *11497:24 0.1371069
25 *11497:25 0.02837021
26 *11497:26 0.2757668
27 *11497:27 0.01637849
28 *11497:28 0.009434132
29 *11497:29 0.4512339
30 *11497:30 0.1876471
31 *11497:31 0.01616732
32 *11497:32 0.007275196
33 *11497:33 0.17499
34 *11497:34 0.01818618
35 *11497:35 0.01018638
36 *11497:36 0.3418402
37 *11497:37 0.01796744
38 *11497:38 0.01001077
39 *11497:39 0.1890106
40 *11497:40 0.008693052
41 *11497:41 0.1122546
42 *11497:42 0.1124958
43 *11497:43 0.1219915
44 *11497:44 0.02700831
45 *11497:45 0.01135457
46 *11497:46 0.2798572
47 *11497:47 0.1621173
48 *11497:48 0.03462493
49 *11497:49 0.0124198
50 *11497:50 0.02562777
51 *11497:51 0.01386922
52 *11497:52 0.02523654
53 *11497:53 0.02523654
54 *11497:54 0.3980287
55 *11497:55 0.4019864
56 *11497:56 0.0127494
57 *11497:57 0.01636041
58 *11497:58 0.01636041
59 *11497:59 0.3852122
60 *11497:60 0.1366857
61 *11497:61 0.5189002
62 *11497:62 0.3155464
63 *11497:63 0.5957186
64 *11497:64 0.001

*RES
0 *283:Y *11497:64 0.5
1 *11497:19 *240:RSTB 0.5
2 *11497:17 *11497:16 0.1
3 *11497:18 *11497:17 0.25
4 *11497:16 *199:RSTB 0.5
5 *11497:43 *11497:42 0.25
6 *11497:42 *11497:41 4.964286
7 *11497:40 *11497:39 0.2825
8 *11497:41 *11497:40 0.25
9 *11497:32 *11497:31 0.3875
10 *11497:33 *11497:32 0.25
11 *11497:14 *11497:13 1.364286
12 *11497:15 *11497:14 0.25
13 *11497:13 *78:RSTB 0.5
14 *11497:49 *11497:48 0.25
15 *11497:48 *11497:47 0.5428572
16 *11497:48 *11497:18 0.8142856
17 *11497:60 *233:RSTB 0.5
18 *11497:61 *11497:60 4.778572
19 *11497:61 *11497:59 12.40804
20 *11497:62 *11497:61 0.25
21 *11497:56 *11497:55 0.1
22 *11497:57 *11497:56 0.25
23 *11497:59 *11497:58 0.25
24 *11497:58 *11497:57 0.5428572
25 *11497:64 *11497:63 0.25
26 *11497:63 *11497:62 13.57143
27 *11497:63 *11497:15 12.48571
28 *11497:24 *11497:23 5.786608
29 *11497:25 *11497:24 0.25
30 *11497:25 *11497:22 0.5428572
31 *11497:23 *243:RSTB 0.5
32 *11497:28 *11497:27 0.1
33 *11497:29 *11497:28 0.25
34 *11497:29 *11497:26 11.67143
35 *11497:27 *241:RSTB 0.5
36 *11497:35 *11497:34 0.1
37 *11497:36 *11497:35 0.25
38 *11497:36 *11497:33 8.142858
39 *11497:34 *239:RSTB 0.5
40 *11497:38 *11497:37 0.1
41 *11497:39 *11497:38 0.25
42 *11497:39 *11497:36 7.6
43 *11497:37 *238:RSTB 0.5
44 *11497:31 *11497:30 0.25
45 *11497:31 *11497:19 0.1725
46 *11497:30 *11497:29 8.142858
47 *11497:21 *11497:20 0.1
48 *11497:22 *11497:21 0.25
49 *11497:20 *242:RSTB 0.5
50 *11497:54 *11497:53 0.25
51 *11497:54 *11497:49 0.4651786
52 *11497:53 *11497:52 0.8142858
53 *11497:51 *11497:50 0.1
54 *11497:52 *11497:51 0.25
55 *11497:50 *200:RSTB 0.5
56 *11497:45 *11497:44 0.4642857
57 *11497:46 *11497:45 0.25
58 *11497:46 *11497:43 5.186607
59 *11497:44 *201:RSTB 0.5
60 *11497:55 *198:RSTB 0.5
61 *11497:55 *11497:54 11.81161
62 *11497:26 *11497:25 0.5428572
63 *11497:47 *11497:46 6.785715

*END

*D_NET *11498 0.6551148 //LENGTH 7.288 DR

*CONN
*I *281:Y O *L 0.000 *C 41.600 31.355
*I *254:A2 I *L 0.575 *C 38.976 27.057
*N *11498:2 *C 39.007 27.057
*N *11498:3 *C 39.492 27.057
*N *11498:4 *C 39.492 31.029
*N *11498:5 *C 39.492 31.072
*N *11498:6 *C 41.468 31.072
*N *11498:7 *C 41.468 31.072
*N *11498:8 *C 41.468 31.199
*N *11498:9 *C 41.468 31.199

*CAP
0 *281:Y 0.01642941
1 *254:A2 0.001
2 *11498:2 0.01801659
3 *11498:3 0.1998842
4 *11498:4 0.1693022
5 *11498:5 0.1088914
6 *11498:6 0.1101331
7 *11498:7 0.01018535
8 *11498:8 0.01106934
9 *11498:9 0.01020321

*RES
0 *281:Y *11498:9 0.08181819
1 *11498:9 *11498:8 0.5
2 *11498:8 *11498:7 0.1916667
3 *11498:7 *11498:6 0.25
4 *11498:6 *11498:5 3.528572
5 *11498:4 *11498:3 7.091965
6 *11498:5 *11498:4 0.25
7 *11498:2 *254:A2 0.5
8 *11498:3 *11498:2 0.8660715

*END

*D_NET *11499 0.4999708 //LENGTH 5.181 DR

*CONN
*I *238:Q O *L 0.000 *C 42.532 65.092
*I *246:A1 I *L 0.603 *C 40.226 66.299
*I *300:A I *L 0.424 *C 41.164 66.105
*N *11499:3 *C 42.547 65.120
*N *11499:4 *C 41.164 66.152
*N *11499:5 *C 41.164 66.109
*N *11499:6 *C 40.140 66.329
*N *11499:7 *C 40.140 66.329
*N *11499:8 *C 40.252 65.468
*N *11499:9 *C 40.252 65.424
*N *11499:10 *C 41.164 65.424
*N *11499:11 *C 41.164 65.424
*N *11499:12 *C 41.164 65.180
*N *11499:13 *C 42.532 65.120

*CAP
0 *238:Q 0.01076675
1 *246:A1 0.01723776
2 *300:A 0.0165923
3 *11499:3 0.01686117
4 *11499:4 0.0103661
5 *11499:5 0.02991094
6 *11499:6 0.01101157
7 *11499:7 0.06066388
8 *11499:8 0.04837387
9 *11499:9 0.05011756
10 *11499:10 0.05011756
11 *11499:11 0.04872913
12 *11499:12 0.07010656
13 *11499:13 0.05911566

*RES
0 *238:Q *11499:13 0.5
1 *238:Q *11499:3 0.18375
2 *11499:11 *11499:10 0.25
3 *11499:11 *11499:5 1.222322
4 *11499:10 *11499:9 1.628571
5 *11499:8 *11499:7 1.538393
6 *11499:9 *11499:8 0.25
7 *11499:6 *246:A1 0.1916667
8 *11499:7 *11499:6 0.5
9 *11499:13 *11499:12 2.442857
10 *11499:4 *300:A 0.08181819
11 *11499:5 *11499:4 0.5
12 *11499:12 *11499:11 0.4357143

*END

*D_NET *11500 0.8235011 //LENGTH 9.120 DR

*CONN
*I *239:Q O *L 0.000 *C 38.610 64.528
*I *304:A I *L 0.424 *C 36.756 62.761
*I *247:A1 I *L 0.603 *C 35.996 67.735
*N *11500:3 *C 35.996 67.692
*N *11500:4 *C 35.996 63.948
*N *11500:5 *C 35.996 63.904
*N *11500:6 *C 36.756 62.808
*N *11500:7 *C 36.756 62.852
*N *11500:8 *C 36.756 63.861
*N *11500:9 *C 36.756 63.904
*N *11500:10 *C 38.580 63.904
*N *11500:11 *C 38.580 63.948
*N *11500:12 *C 38.580 64.297
*N *11500:13 *C 38.580 64.365

*CAP
0 *239:Q 0.01688983
1 *304:A 0.01560269
2 *247:A1 0.001
3 *11500:3 0.1969261
4 *11500:4 0.1936143
5 *11500:5 0.04189244
6 *11500:6 0.009376494
7 *11500:7 0.05028979
8 *11500:8 0.04939933
9 *11500:9 0.1178843
10 *11500:10 0.08037309
11 *11500:11 0.01934927
12 *11500:12 0.02023973
13 *11500:13 0.01066364

*RES
0 *239:Q *11500:13 0.1308334
1 *11500:8 *11500:7 2.050893
2 *11500:9 *11500:8 0.25
3 *11500:9 *11500:5 1.357143
4 *11500:6 *304:A 0.08181819
5 *11500:7 *11500:6 0.5
6 *11500:11 *11500:10 0.25
7 *11500:10 *11500:9 3.257143
8 *11500:13 *11500:12 0.5
9 *11500:12 *11500:11 0.6241071
10 *11500:4 *11500:3 6.685715
11 *11500:5 *11500:4 0.25
12 *11500:3 *247:A1 0.5

*END

*D_NET *11501 1.074396 //LENGTH 11.795 DR

*CONN
*I *240:Q O *L 0.000 *C 34.050 66.294
*I *308:A I *L 0.424 *C 30.980 62.761
*I *248:A1 I *L 0.603 *C 30.384 69.643
*N *11501:3 *C 34.020 66.214
*N *11501:4 *C 30.456 69.673
*N *11501:5 *C 30.456 69.673
*N *11501:6 *C 30.372 66.380
*N *11501:7 *C 30.372 66.336
*N *11501:8 *C 30.980 62.808
*N *11501:9 *C 30.980 62.852
*N *11501:10 *C 30.980 66.293
*N *11501:11 *C 30.980 66.336
*N *11501:12 *C 34.020 66.336
*N *11501:13 *C 34.020 66.336
*N *11501:14 *C 34.020 66.336

*CAP
0 *240:Q 0.01665014
1 *308:A 0.01565007
2 *248:A1 0.01598609
3 *11501:3 0.009400704
4 *11501:4 0.009759893
5 *11501:5 0.1778207
6 *11501:6 0.1668102
7 *11501:7 0.03308859
8 *11501:8 0.009423873
9 *11501:9 0.1549063
10 *11501:10 0.1540158
11 *11501:11 0.1636041
12 *11501:12 0.1344645
13 *11501:13 0.00239146
14 *11501:14 0.01042394

*RES
0 *240:Q *11501:14 0.08181819
1 *11501:13 *11501:12 0.25
2 *11501:13 *11501:3 0.2033333
3 *11501:12 *11501:11 5.428572
4 *11501:14 *11501:13 0.5
5 *11501:6 *11501:5 5.88125
6 *11501:7 *11501:6 0.25
7 *11501:4 *248:A1 0.1916667
8 *11501:5 *11501:4 0.5
9 *11501:10 *11501:9 6.144643
10 *11501:11 *11501:10 0.25
11 *11501:11 *11501:7 1.085714
12 *11501:8 *308:A 0.08181818
13 *11501:9 *11501:8 0.5

*END

*D_NET *11502 1.364733 //LENGTH 16.444 DR

*CONN
*I *241:Q O *L 0.000 *C 29.490 66.294
*I *309:A I *L 0.424 *C 26.632 64.627
*I *249:A1 I *L 0.603 *C 20.340 71.079
*N *11502:3 *C 29.460 66.214
*N *11502:4 *C 20.340 71.036
*N *11502:5 *C 20.340 66.380
*N *11502:6 *C 20.340 66.336
*N *11502:7 *C 26.632 64.627
*N *11502:8 *C 26.572 66.293
*N *11502:9 *C 26.572 66.336
*N *11502:10 *C 29.460 66.336
*N *11502:11 *C 29.460 66.336
*N *11502:12 *C 29.460 66.336

*CAP
0 *241:Q 0.01738221
1 *309:A 0.001
2 *249:A1 0.001
3 *11502:3 0.009775816
4 *11502:4 0.2268493
5 *11502:5 0.2235375
6 *11502:6 0.2290386
7 *11502:7 0.08559789
8 *11502:8 0.07319814
9 *11502:9 0.3550427
10 *11502:10 0.1280018
11 *11502:11 0.003153477
12 *11502:12 0.01115602

*RES
0 *241:Q *11502:12 0.08181819
1 *11502:11 *11502:10 0.25
2 *11502:11 *11502:3 0.2033333
3 *11502:10 *11502:9 5.157143
4 *11502:12 *11502:11 0.5
5 *11502:5 *11502:4 8.314286
6 *11502:6 *11502:5 0.25
7 *11502:4 *249:A1 0.5
8 *11502:8 *11502:7 2.974108
9 *11502:9 *11502:8 0.25
10 *11502:9 *11502:6 11.12857
11 *11502:7 *309:A 0.5

*END

*D_NET *11503 1.150655 //LENGTH 12.780 DR

*CONN
*I *242:Q O *L 0.000 *C 23.258 64.528
*I *307:A I *L 0.424 *C 22.620 69.449
*I *250:A1 I *L 0.603 *C 17.159 69.643
*N *11503:3 *C 17.230 69.673
*N *11503:4 *C 17.230 69.673
*N *11503:5 *C 17.150 69.604
*N *11503:6 *C 17.148 69.419
*N *11503:7 *C 17.148 69.376
*N *11503:8 *C 22.620 69.496
*N *11503:9 *C 22.620 69.496
*N *11503:10 *C 22.620 69.376
*N *11503:11 *C 22.620 69.376
*N *11503:12 *C 23.228 69.376
*N *11503:13 *C 23.228 69.333
*N *11503:14 *C 23.228 64.359
*N *11503:15 *C 23.228 64.365

*CAP
0 *242:Q 0.01853394
1 *307:A 0.01653537
2 *250:A1 0.01882113
3 *11503:3 0.01259493
4 *11503:4 0.01186394
5 *11503:5 0.02434109
6 *11503:6 0.01076128
7 *11503:7 0.2374875
8 *11503:8 0.01030918
9 *11503:9 0.01083269
10 *11503:10 0.009951791
11 *11503:11 0.2689439
12 *11503:12 0.03598292
13 *11503:13 0.2252483
14 *11503:14 0.2261388
15 *11503:15 0.01230774

*RES
0 *242:Q *11503:15 0.1308333
1 *11503:13 *11503:12 0.25
2 *11503:12 *11503:11 1.085714
3 *11503:15 *11503:14 0.5
4 *11503:14 *11503:13 8.88125
5 *11503:10 *11503:9 0.1916667
6 *11503:11 *11503:10 0.25
7 *11503:11 *11503:7 9.771429
8 *11503:8 *307:A 0.08181819
9 *11503:9 *11503:8 0.5
10 *11503:6 *11503:5 0.3091667
11 *11503:7 *11503:6 0.25
12 *11503:3 *250:A1 0.1916667
13 *11503:4 *11503:3 0.5
14 *11503:5 *11503:4 0.115

*END

*D_NET *11504 0.800941 //LENGTH 9.799 DR

*CONN
*I *243:Q O *L 0.000 *C 22.954 61.184
*I *303:A I *L 0.424 *C 20.492 62.761
*I *251:A1 I *L 0.603 *C 16.692 62.942
*N *11504:3 *C 16.692 62.899
*N *11504:4 *C 16.692 62.428
*N *11504:5 *C 16.692 62.384
*N *11504:6 *C 20.492 62.808
*N *11504:7 *C 20.492 62.765
*N *11504:8 *C 20.492 62.548
*N *11504:9 *C 20.492 62.504
*N *11504:10 *C 22.924 62.504
*N *11504:11 *C 22.924 62.461
*N *11504:12 *C 22.924 61.015
*N *11504:13 *C 22.924 61.021

*CAP
0 *243:Q 0.01949542
1 *303:A 0.01568645
2 *251:A1 0.001
3 *11504:3 0.04141796
4 *11504:4 0.0381062
5 *11504:5 0.1404146
6 *11504:6 0.009460253
7 *11504:7 0.01794763
8 *11504:8 0.01705717
9 *11504:9 0.241662
10 *11504:10 0.1040681
11 *11504:11 0.07023279
12 *11504:12 0.07112326
13 *11504:13 0.01326922

*RES
0 *243:Q *11504:13 0.1308333
1 *11504:8 *11504:7 0.6508929
2 *11504:9 *11504:8 0.25
3 *11504:9 *11504:5 6.785714
4 *11504:6 *303:A 0.08181818
5 *11504:7 *11504:6 0.5
6 *11504:11 *11504:10 0.25
7 *11504:10 *11504:9 4.342857
8 *11504:13 *11504:12 0.5
9 *11504:12 *11504:11 2.58125
10 *11504:4 *11504:3 0.8901786
11 *11504:5 *11504:4 0.25
12 *11504:3 *251:A1 0.5

*END

*D_NET *11505 0.7723019 //LENGTH 9.301 DR

*CONN
*I *244:Q O *L 0.000 *C 23.091 55.634
*I *302:A I *L 0.424 *C 21.100 54.528
*I *252:A1 I *L 0.603 *C 16.082 54.356
*N *11505:3 *C 23.091 55.512
*N *11505:4 *C 16.082 54.356
*N *11505:5 *C 16.084 54.480
*N *11505:6 *C 16.084 54.480
*N *11505:7 *C 21.100 54.480
*N *11505:8 *C 21.100 54.480
*N *11505:9 *C 21.100 54.480
*N *11505:10 *C 21.100 55.045
*N *11505:11 *C 21.100 55.088
*N *11505:12 *C 23.076 55.088
*N *11505:13 *C 23.076 55.132
*N *11505:14 *C 23.076 55.469

*CAP
0 *244:Q 0.01090327
1 *302:A 0.01598575
2 *252:A1 0.001
3 *11505:3 0.01699769
4 *11505:4 0.01555425
5 *11505:5 0.01221775
6 *11505:6 0.1805717
7 *11505:7 0.1877165
8 *11505:8 0.009759558
9 *11505:9 0.04571149
10 *11505:10 0.04502554
11 *11505:11 0.09468607
12 *11505:12 0.09532823
13 *11505:13 0.01991091
14 *11505:14 0.02093314

*RES
0 *244:Q *11505:14 0.5
1 *244:Q *11505:3 0.18375
2 *11505:8 *302:A 0.1545455
3 *11505:9 *11505:8 0.5
4 *11505:9 *11505:7 0.25
5 *11505:7 *11505:6 8.957144
6 *11505:5 *11505:4 0.1916667
7 *11505:6 *11505:5 0.25
8 *11505:4 *252:A1 0.5
9 *11505:10 *11505:9 1.150893
10 *11505:11 *11505:10 0.25
11 *11505:13 *11505:12 0.25
12 *11505:12 *11505:11 3.528571
13 *11505:14 *11505:13 0.6017857

*END

*D_NET *11506 1.019332 //LENGTH 12.222 DR

*CONN
*I *245:Q O *L 0.000 *C 24.018 51.152
*I *306:A I *L 0.424 *C 22.012 49.385
*I *253:A1 I *L 0.603 *C 16.388 47.671
*N *11506:3 *C 16.388 47.715
*N *11506:4 *C 16.388 48.661
*N *11506:5 *C 16.388 48.704
*N *11506:6 *C 22.012 48.704
*N *11506:7 *C 22.012 48.748
*N *11506:8 *C 22.012 49.432
*N *11506:9 *C 22.012 49.389
*N *11506:10 *C 22.012 49.616
*N *11506:11 *C 22.012 49.616
*N *11506:12 *C 23.988 49.616
*N *11506:13 *C 23.988 49.660
*N *11506:14 *C 23.988 50.921
*N *11506:15 *C 23.988 50.989

*CAP
0 *245:Q 0.0181309
1 *306:A 0.0155654
2 *253:A1 0.001
3 *11506:3 0.0675961
4 *11506:4 0.06428434
5 *11506:5 0.2181428
6 *11506:6 0.2209916
7 *11506:7 0.0543021
8 *11506:8 0.009339206
9 *11506:9 0.07020058
10 *11506:10 0.01419906
11 *11506:11 0.0724081
12 *11506:12 0.07121187
13 *11506:13 0.05458232
14 *11506:14 0.05547278
15 *11506:15 0.0119047

*RES
0 *245:Q *11506:15 0.1308333
1 *11506:8 *306:A 0.08181819
2 *11506:9 *11506:8 0.5
3 *11506:9 *11506:7 1.144643
4 *11506:10 *11506:9 0.2641667
5 *11506:11 *11506:10 0.25
6 *11506:13 *11506:12 0.25
7 *11506:12 *11506:11 3.55
8 *11506:15 *11506:14 0.5
9 *11506:14 *11506:13 2.358928
10 *11506:7 *11506:6 0.25
11 *11506:6 *11506:5 10.04286
12 *11506:4 *11506:3 1.689286
13 *11506:5 *11506:4 0.25
14 *11506:3 *253:A1 0.5

*END

*D_NET *11507 0.4919755 //LENGTH 5.153 DR

*CONN
*I *285:Y O *L 0.000 *C 24.444 45.572
*I *159:D I *L 0.547 *C 21.100 44.600
*N *11507:2 *C 21.100 44.600
*N *11507:3 *C 21.100 44.752
*N *11507:4 *C 21.100 44.752
*N *11507:5 *C 24.596 44.752
*N *11507:6 *C 24.596 44.796
*N *11507:7 *C 24.656 45.572
*N *11507:8 *C 24.611 45.572

*CAP
0 *285:Y 0.01933291
1 *159:D 0.001
2 *11507:2 0.01199859
3 *11507:3 0.01101143
4 *11507:4 0.1722246
5 *11507:5 0.1757288
6 *11507:6 0.03723341
7 *11507:7 0.05033903
8 *11507:8 0.01310671

*RES
0 *285:Y *11507:8 0.3340001
1 *11507:8 *11507:7 0.5
2 *11507:7 *11507:6 1.386607
3 *11507:6 *11507:5 0.25
4 *11507:5 *11507:4 6.242857
5 *11507:3 *11507:2 0.1916667
6 *11507:4 *11507:3 0.25
7 *11507:2 *159:D 0.5

*END

*D_NET *11508 0.4124778 //LENGTH 4.619 DR

*CONN
*I *294:Y O *L 0.000 *C 35.388 23.684
*I *168:D I *L 0.547 *C 32.652 22.500
*N *11508:2 *C 32.652 22.500
*N *11508:3 *C 32.652 22.560
*N *11508:4 *C 35.540 22.560
*N *11508:5 *C 35.540 22.604
*N *11508:6 *C 35.600 23.684
*N *11508:7 *C 35.555 23.684

*CAP
0 *294:Y 0.02366792
1 *168:D 0.001
2 *11508:2 0.001
3 *11508:3 0.1308993
4 *11508:4 0.1294659
5 *11508:5 0.04807138
6 *11508:6 0.06093161
7 *11508:7 0.01744173

*RES
0 *294:Y *11508:7 0.3340001
1 *11508:7 *11508:6 0.5
2 *11508:6 *11508:5 1.929464
3 *11508:5 *11508:4 0.25
4 *11508:4 *11508:3 5.157143
5 *11508:2 *168:D 0.5
6 *11508:3 *11508:2 0.25

*END

*D_NET *11509 0.4056381 //LENGTH 4.594 DR

*CONN
*I *297:Y O *L 0.000 *C 28.244 24.080
*I *167:D I *L 0.547 *C 25.812 22.565
*N *11509:2 *C 28.244 23.958
*N *11509:3 *C 25.812 22.620
*N *11509:4 *C 25.812 22.664
*N *11509:5 *C 25.812 24.037
*N *11509:6 *C 25.812 24.080
*N *11509:7 *C 28.244 24.080
*N *11509:8 *C 28.244 24.080

*CAP
0 *297:Y 0.001
1 *167:D 0.01402837
2 *11509:2 0.0100438
3 *11509:3 0.007802177
4 *11509:4 0.07304619
5 *11509:5 0.07215573
6 *11509:6 0.112651
7 *11509:7 0.1125221
8 *11509:8 0.002388715

*RES
0 *297:Y *11509:8 0.5
1 *11509:8 *11509:7 0.25
2 *11509:8 *11509:2 0.2033334
3 *11509:7 *11509:6 4.342857
4 *11509:5 *11509:4 2.451786
5 *11509:6 *11509:5 0.25
6 *11509:3 *167:D 0.08181819
7 *11509:4 *11509:3 0.5

*END

*D_NET *11510 0.312777 //LENGTH 3.817 DR

*CONN
*I *298:Y O *L 0.000 *C 34.172 27.180
*I *194:A2 I *L 0.579 *C 31.272 27.088
*N *11510:2 *C 31.284 26.998
*N *11510:3 *C 31.284 27.117
*N *11510:4 *C 31.284 27.076
*N *11510:5 *C 31.284 27.120
*N *11510:6 *C 34.172 27.120
*N *11510:7 *C 34.172 27.120
*N *11510:8 *C 34.112 27.180
*N *11510:9 *C 34.112 27.180

*CAP
0 *298:Y 0.01431057
1 *194:A2 0.01470819
2 *11510:2 0.009859254
3 *11510:3 0.008481999
4 *11510:4 0.001
5 *11510:5 0.1148719
6 *11510:6 0.1127218
7 *11510:7 0.01114494
8 *11510:8 0.01759401
9 *11510:9 0.008084376

*RES
0 *298:Y *11510:9 0.1916667
1 *11510:9 *11510:8 0.5
2 *11510:8 *11510:7 0.1333334
3 *11510:7 *11510:6 0.25
4 *11510:6 *11510:5 5.157143
5 *11510:4 *11510:3 0.5
6 *11510:4 *11510:2 0.13
7 *11510:5 *11510:4 0.25
8 *11510:3 *194:A2 0.1572727

*END

*D_NET *11511 0.346279 //LENGTH 3.894 DR

*CONN
*I *299:Y O *L 0.000 *C 30.676 34.872
*I *171:A3 I *L 0.554 *C 27.484 35.072
*N *11511:2 *C 27.484 34.902
*N *11511:3 *C 27.484 35.024
*N *11511:4 *C 27.484 35.024
*N *11511:5 *C 27.484 35.024
*N *11511:6 *C 30.676 35.024
*N *11511:7 *C 30.676 35.024
*N *11511:8 *C 30.676 34.872

*CAP
0 *299:Y 0.001
1 *171:A3 0.01848059
2 *11511:2 0.01268946
3 *11511:3 0.0122544
4 *11511:4 0.006101192
5 *11511:5 0.1389225
6 *11511:6 0.1382203
7 *11511:7 0.009866811
8 *11511:8 0.008743747

*RES
0 *299:Y *11511:8 0.5
1 *11511:8 *11511:7 0.1916667
2 *11511:7 *11511:6 0.25
3 *11511:6 *11511:5 5.7
4 *11511:4 *11511:3 0.5
5 *11511:4 *11511:2 0.2033334
6 *11511:5 *11511:4 0.25
7 *11511:3 *171:A3 0.08181818

*END

*D_NET *11512 0.8044609 //LENGTH 8.557 DR

*CONN
*I *300:Y O *L 0.000 *C 43.748 65.636
*I *266:A3 I *L 0.554 *C 40.708 62.153
*N *11512:2 *C 40.708 62.200
*N *11512:3 *C 40.708 62.200
*N *11512:4 *C 40.708 62.080
*N *11512:5 *C 40.708 62.080
*N *11512:6 *C 44.356 62.080
*N *11512:7 *C 44.356 62.124
*N *11512:8 *C 44.296 65.636
*N *11512:9 *C 44.251 65.636

*CAP
0 *300:Y 0.03687697
1 *266:A3 0.0142919
2 *11512:2 0.008065701
3 *11512:3 0.01474035
4 *11512:4 0.01383904
5 *11512:5 0.1741151
6 *11512:6 0.1745652
7 *11512:7 0.1629215
8 *11512:8 0.1743945
9 *11512:9 0.03065078

*RES
0 *300:Y *11512:9 1.006
1 *11512:9 *11512:8 0.5
2 *11512:8 *11512:7 6.272322
3 *11512:7 *11512:6 0.25
4 *11512:6 *11512:5 6.514286
5 *11512:4 *11512:3 0.1916667
6 *11512:5 *11512:4 0.25
7 *11512:2 *266:A3 0.08181819
8 *11512:3 *11512:2 0.5

*END

*D_NET *11513 1.378685 //LENGTH 15.160 DR

*CONN
*I *305:Y O *L 0.000 *C 25.052 43.444
*I *275:A3 I *L 0.671 *C 33.716 49.255
*N *11513:2 *C 33.716 49.212
*N *11513:3 *C 33.716 48.748
*N *11513:4 *C 33.716 48.704
*N *11513:5 *C 25.204 48.704
*N *11513:6 *C 25.204 48.661
*N *11513:7 *C 25.264 43.444
*N *11513:8 *C 25.219 43.444

*CAP
0 *305:Y 0.02388947
1 *275:A3 0.001
2 *11513:2 0.03195279
3 *11513:3 0.03154659
4 *11513:4 0.3876026
5 *11513:5 0.3872752
6 *11513:6 0.2418309
7 *11513:7 0.2559242
8 *11513:8 0.01766328

*RES
0 *305:Y *11513:8 0.3340001
1 *11513:8 *11513:7 0.5
2 *11513:7 *11513:6 9.315179
3 *11513:6 *11513:5 0.25
4 *11513:5 *11513:4 15.2
5 *11513:3 *11513:2 0.8285714
6 *11513:4 *11513:3 0.25
7 *11513:2 *275:A3 0.5

*END

*D_NET *11514 4.888113 //LENGTH 52.066 DR

*CONN
*I *301:Y O *L 0.000 *C 25.508 32.525
*I *172:A2 I *L 0.512 *C 28.152 39.644
*I *220:A1 I *L 0.525 *C 28.579 49.299
*I *105:A I *L 0.588 *C 31.588 57.884
*I *262:A3 I *L 0.522 *C 31.588 59.546
*I *260:A3 I *L 0.522 *C 29.156 57.772
*I *273:A3 I *L 0.459 *C 29.916 52.745
*I *126:A2 I *L 0.699 *C 31.132 37.845
*I *140:A1 I *L 0.552 *C 31.284 32.996
*I *174:A2 I *L 0.512 *C 21.263 36.300
*N *11514:10 *C 21.263 36.300
*N *11514:11 *C 21.323 36.240
*N *11514:12 *C 21.323 36.240
*N *11514:13 *C 25.508 36.240
*N *11514:14 *C 25.508 36.197
*N *11514:15 *C 31.284 32.896
*N *11514:16 *C 31.284 32.865
*N *11514:17 *C 31.284 32.636
*N *11514:18 *C 31.284 32.592
*N *11514:19 *C 31.132 37.845
*N *11514:20 *C 29.916 52.656
*N *11514:21 *C 29.916 52.656
*N *11514:22 *C 29.916 52.472
*N *11514:23 *C 29.916 52.472
*N *11514:24 *C 29.156 57.707
*N *11514:25 *C 29.157 57.750
*N *11514:26 *C 29.158 57.884
*N *11514:27 *C 31.588 59.471
*N *11514:28 *C 31.588 59.428
*N *11514:29 *C 31.588 57.928
*N *11514:30 *C 31.588 57.824
*N *11514:31 *C 29.308 57.824
*N *11514:32 *C 29.308 57.781
*N *11514:33 *C 29.308 52.412
*N *11514:34 *C 29.156 52.352
*N *11514:35 *C 29.156 52.352
*N *11514:36 *C 28.548 52.352
*N *11514:37 *C 28.548 52.309
*N *11514:38 *C 28.488 49.294
*N *11514:39 *C 28.531 49.294
*N *11514:40 *C 28.386 49.195
*N *11514:41 *C 28.229 49.195
*N *11514:42 *C 28.184 49.195
*N *11514:43 *C 28.152 39.644
*N *11514:44 *C 28.244 39.748
*N *11514:45 *C 28.244 39.704
*N *11514:46 *C 30.980 39.584
*N *11514:47 *C 30.980 39.541
*N *11514:48 *C 30.980 37.820
*N *11514:49 *C 30.980 32.636
*N *11514:50 *C 30.980 32.592
*N *11514:51 *C 25.508 32.592
*N *11514:52 *C 25.508 32.636
*N *11514:53 *C 25.568 32.525
*N *11514:54 *C 25.568 32.525

*CAP
0 *301:Y 0.0166469
1 *172:A2 0.001
2 *220:A1 0.01146935
3 *105:A 0.001
4 *262:A3 0.01523638
5 *260:A3 0.01245898
6 *273:A3 0.01268477
7 *126:A2 0.001
8 *140:A1 0.02032426
9 *174:A2 0.001
10 *11514:10 0.01454049
11 *11514:11 0.01884045
12 *11514:12 0.1567983
13 *11514:13 0.160691
14 *11514:14 0.1867454
15 *11514:15 0.01409806
16 *11514:16 0.02197369
17 *11514:17 0.02108324
18 *11514:18 0.01447469
19 *11514:19 0.01018154
20 *11514:20 0.006458574
21 *11514:21 0.01346866
22 *11514:22 0.01232356
23 *11514:23 0.04193107
24 *11514:24 0.00623279
25 *11514:25 0.009121737
26 *11514:26 0.02376311
27 *11514:27 0.009010185
28 *11514:28 0.07096883
29 *11514:29 0.06627348
30 *11514:30 0.1067619
31 *11514:31 0.1070028
32 *11514:32 0.2924163
33 *11514:33 0.3000432
34 *11514:34 0.009143397
35 *11514:35 0.06982775
36 *11514:36 0.03180735
37 *11514:37 0.1995966
38 *11514:38 0.2195371
39 *11514:39 0.001370387
40 *11514:40 0.0285369
41 *11514:41 0.01843793
42 *11514:42 0.4206299
43 *11514:43 0.01938629
44 *11514:44 0.4176812
45 *11514:45 0.1065701
46 *11514:46 0.1062027
47 *11514:47 0.1117948
48 *11514:48 0.4319583
49 *11514:49 0.2967865
50 *11514:50 0.1988705
51 *11514:51 0.1913218
52 *11514:52 0.1991082
53 *11514:53 0.02110131
54 *11514:54 0.0104207

*RES
0 *301:Y *11514:54 0.245
1 *220:A1 *11514:39 0.015625
2 *11514:29 *105:A 0.5
3 *11514:29 *11514:28 2.678572
4 *11514:44 *11514:43 0.1725
5 *11514:44 *11514:42 16.87054
6 *11514:45 *11514:44 0.25
7 *11514:47 *11514:46 0.25
8 *11514:46 *11514:45 4.885715
9 *11514:34 *11514:33 0.2714286
10 *11514:35 *11514:34 0.25
11 *11514:35 *11514:23 1.357143
12 *11514:52 *11514:51 0.25
13 *11514:52 *11514:14 6.35893
14 *11514:51 *11514:50 9.771429
15 *11514:30 *11514:29 0.25
16 *11514:32 *11514:31 0.25
17 *11514:32 *11514:26 0.26875
18 *11514:31 *11514:30 4.071428
19 *11514:49 *11514:48 9.258036
20 *11514:50 *11514:49 0.25
21 *11514:50 *11514:18 0.5428572
22 *11514:14 *11514:13 0.25
23 *11514:13 *11514:12 7.473215
24 *11514:11 *11514:10 0.1
25 *11514:12 *11514:11 0.25
26 *11514:10 *174:A2 0.5
27 *11514:22 *11514:21 0.1916667
28 *11514:23 *11514:22 0.25
29 *11514:20 *273:A3 0.08181819
30 *11514:21 *11514:20 0.5
31 *11514:27 *262:A3 0.08181819
32 *11514:28 *11514:27 0.5
33 *11514:24 *260:A3 0.08181819
34 *11514:25 *11514:24 0.5
35 *11514:37 *11514:36 0.25
36 *11514:36 *11514:35 1.085714
37 *11514:39 *11514:38 0.5
38 *11514:38 *11514:37 5.383036
39 *11514:41 *11514:40 0.313
40 *11514:42 *11514:41 0.5
41 *11514:43 *172:A2 0.5
42 *11514:17 *11514:16 0.4098215
43 *11514:18 *11514:17 0.25
44 *11514:15 *140:A1 0.1916667
45 *11514:16 *11514:15 0.5
46 *11514:19 *126:A2 0.5
47 *11514:54 *11514:53 0.5
48 *11514:53 *11514:52 0.1841667
49 *11514:40 *220:A1 0.0140625
50 *11514:33 *11514:32 9.586608
51 *11514:26 *11514:25 0.4896552
52 *11514:48 *11514:47 3.072322
53 *11514:48 *11514:19 0.2714286

*END

*D_NET *11515 0.4632947 //LENGTH 5.183 DR

*CONN
*I *302:Y O *L 0.000 *C 23.380 53.932
*I *271:A3 I *L 0.554 *C 20.128 55.148
*N *11515:2 *C 20.128 55.148
*N *11515:3 *C 20.188 53.916
*N *11515:4 *C 20.188 53.872
*N *11515:5 *C 23.380 53.872
*N *11515:6 *C 23.380 53.872
*N *11515:7 *C 23.320 53.932
*N *11515:8 *C 23.320 53.932

*CAP
0 *302:Y 0.01429348
1 *271:A3 0.001
2 *11515:2 0.07104087
3 *11515:3 0.06108559
4 *11515:4 0.1423899
5 *11515:5 0.1427758
6 *11515:6 0.008567349
7 *11515:7 0.01407435
8 *11515:8 0.008067286

*RES
0 *302:Y *11515:8 0.1916667
1 *11515:8 *11515:7 0.5
2 *11515:7 *11515:6 0.1
3 *11515:6 *11515:5 0.25
4 *11515:5 *11515:4 5.700001
5 *11515:3 *11515:2 2.200893
6 *11515:4 *11515:3 0.25
7 *11515:2 *271:A3 0.5

*END

*D_NET *11516 0.5459645 //LENGTH 6.201 DR

*CONN
*I *303:Y O *L 0.000 *C 22.772 62.232
*I *255:A3 I *L 0.554 *C 20.280 58.796
*N *11516:2 *C 20.280 58.796
*N *11516:3 *C 20.340 62.037
*N *11516:4 *C 20.340 62.080
*N *11516:5 *C 22.772 62.080
*N *11516:6 *C 22.772 62.080
*N *11516:7 *C 22.772 62.232

*CAP
0 *303:Y 0.001
1 *255:A3 0.001
2 *11516:2 0.1521176
3 *11516:3 0.143607
4 *11516:4 0.11158
5 *11516:5 0.1099181
6 *11516:6 0.01339728
7 *11516:7 0.01334448

*RES
0 *303:Y *11516:7 0.5
1 *11516:7 *11516:6 0.1916667
2 *11516:6 *11516:5 0.25
3 *11516:5 *11516:4 4.342857
4 *11516:3 *11516:2 5.786608
5 *11516:4 *11516:3 0.25
6 *11516:2 *255:A3 0.5

*END

*D_NET *11517 0.3665 //LENGTH 4.373 DR

*CONN
*I *304:Y O *L 0.000 *C 39.340 62.292
*I *264:A3 I *L 0.554 *C 36.604 61.824
*N *11517:2 *C 36.604 61.654
*N *11517:3 *C 36.604 61.776
*N *11517:4 *C 36.604 61.776
*N *11517:5 *C 36.604 61.776
*N *11517:6 *C 39.492 61.776
*N *11517:7 *C 39.492 61.820
*N *11517:8 *C 39.552 62.292
*N *11517:9 *C 39.507 62.292

*CAP
0 *304:Y 0.01984539
1 *264:A3 0.01486009
2 *11517:2 0.01540508
3 *11517:3 0.008633899
4 *11517:4 0.008446692
5 *11517:5 0.1147347
6 *11517:6 0.1159389
7 *11517:7 0.0212024
8 *11517:8 0.03381366
9 *11517:9 0.01361919

*RES
0 *304:Y *11517:9 0.3340001
1 *11517:9 *11517:8 0.5
2 *11517:8 *11517:7 0.8437501
3 *11517:7 *11517:6 0.25
4 *11517:6 *11517:5 5.157143
5 *11517:4 *11517:3 0.5
6 *11517:4 *11517:2 0.2033333
7 *11517:5 *11517:4 0.25
8 *11517:3 *264:A3 0.08181819

*END

*D_NET *11518 0.3788192 //LENGTH 3.835 DR

*CONN
*I *306:Y O *L 0.000 *C 24.292 48.769
*I *269:A3 I *L 0.554 *C 21.760 48.460
*N *11518:2 *C 21.708 48.460
*N *11518:3 *C 21.708 48.418
*N *11518:4 *C 21.708 48.358
*N *11518:5 *C 21.708 48.400
*N *11518:6 *C 24.292 48.400
*N *11518:7 *C 24.292 48.444
*N *11518:8 *C 24.232 48.764
*N *11518:9 *C 24.232 48.764

*CAP
0 *306:Y 0.01845871
1 *269:A3 0.01123825
2 *11518:2 0.009162848
3 *11518:3 0.01428752
4 *11518:4 0.009246266
5 *11518:5 0.1295936
6 *11518:6 0.1323277
7 *11518:7 0.0148568
8 *11518:8 0.02741507
9 *11518:9 0.01223252

*RES
0 *306:Y *11518:9 0.1916667
1 *11518:9 *11518:8 0.5
2 *11518:8 *11518:7 0.5723215
3 *11518:7 *11518:6 0.25
4 *11518:6 *11518:5 4.614285
5 *11518:4 *11518:3 0.1
6 *11518:5 *11518:4 0.25
7 *11518:2 *269:A3 0.09166668
8 *11518:3 *11518:2 1

*END

*D_NET *11519 0.3829167 //LENGTH 4.373 DR

*CONN
*I *307:Y O *L 0.000 *C 25.204 68.980
*I *257:A3 I *L 0.554 *C 22.468 68.512
*N *11519:2 *C 22.468 68.342
*N *11519:3 *C 22.468 68.464
*N *11519:4 *C 22.468 68.464
*N *11519:5 *C 22.468 68.464
*N *11519:6 *C 25.356 68.464
*N *11519:7 *C 25.356 68.508
*N *11519:8 *C 25.416 68.980
*N *11519:9 *C 25.371 68.980

*CAP
0 *307:Y 0.02389996
1 *257:A3 0.01621341
2 *11519:2 0.01242466
3 *11519:3 0.009987211
4 *11519:4 0.006205386
5 *11519:5 0.1221144
6 *11519:6 0.1213962
7 *11519:7 0.02024092
8 *11519:8 0.03276072
9 *11519:9 0.01767377

*RES
0 *307:Y *11519:9 0.3340001
1 *11519:9 *11519:8 0.5
2 *11519:8 *11519:7 0.8437501
3 *11519:7 *11519:6 0.25
4 *11519:6 *11519:5 5.157143
5 *11519:4 *11519:3 0.5
6 *11519:4 *11519:2 0.2033333
7 *11519:5 *11519:4 0.25
8 *11519:3 *257:A3 0.08181819

*END

*D_NET *11520 0.3865774 //LENGTH 5.043 DR

*CONN
*I *308:Y O *L 0.000 *C 33.716 62.580
*I *261:A3 I *L 0.554 *C 30.068 62.153
*N *11520:2 *C 30.068 62.200
*N *11520:3 *C 30.068 62.200
*N *11520:4 *C 30.068 62.080
*N *11520:5 *C 30.068 62.080
*N *11520:6 *C 33.716 62.080
*N *11520:7 *C 33.716 62.124
*N *11520:8 *C 33.776 62.555
*N *11520:9 *C 33.776 62.555

*CAP
0 *308:Y 0.0132695
1 *261:A3 0.01397427
2 *11520:2 0.007748074
3 *11520:3 0.01410082
4 *11520:4 0.01147979
5 *11520:5 0.1368859
6 *11520:6 0.1368956
7 *11520:7 0.01701237
8 *11520:8 0.02816781
9 *11520:9 0.007043303

*RES
0 *308:Y *11520:9 0.1916667
1 *11520:9 *11520:8 0.5
2 *11520:8 *11520:7 0.7705358
3 *11520:7 *11520:6 0.25
4 *11520:6 *11520:5 6.514286
5 *11520:4 *11520:3 0.1916667
6 *11520:5 *11520:4 0.25
7 *11520:2 *261:A3 0.08181819
8 *11520:3 *11520:2 0.5

*END

*D_NET *11521 0.3467774 //LENGTH 4.149 DR

*CONN
*I *309:Y O *L 0.000 *C 28.852 64.968
*I *259:A3 I *L 0.554 *C 25.660 65.168
*N *11521:2 *C 28.852 64.846
*N *11521:3 *C 25.660 64.998
*N *11521:4 *C 25.660 65.120
*N *11521:5 *C 25.660 65.120
*N *11521:6 *C 25.660 65.120
*N *11521:7 *C 28.852 65.180
*N *11521:8 *C 28.852 64.999
*N *11521:9 *C 28.852 64.968

*CAP
0 *309:Y 0.001
1 *259:A3 0.01586865
2 *11521:2 0.009330945
3 *11521:3 0.01251022
4 *11521:4 0.009642454
5 *11521:5 0.006149425
6 *11521:6 0.1401706
7 *11521:7 0.1470654
8 *11521:8 0.004039721
9 *11521:9 0.001

*RES
0 *309:Y *11521:9 0.5
1 *11521:9 *11521:8 0.25
2 *11521:9 *11521:2 0.2033333
3 *11521:8 *11521:7 0.3232143
4 *11521:5 *11521:4 0.5
5 *11521:5 *11521:3 0.2033333
6 *11521:6 *11521:5 0.25
7 *11521:4 *259:A3 0.08181819
8 *11521:7 *11521:6 5.7

*END

*D_NET *11522 0.9027664 //LENGTH 10.816 DR

*CONN
*I *310:Y O *L 0.000 *C 50.892 55.696
*I *203:A3 I *L 0.554 *C 49.736 58.492
*I *210:A1 I *L 0.513 *C 48.034 51.196
*N *11522:3 *C 50.892 55.574
*N *11522:4 *C 48.507 51.196
*N *11522:5 *C 48.552 51.196
*N *11522:6 *C 48.612 55.653
*N *11522:7 *C 48.612 55.696
*N *11522:8 *C 49.736 58.492
*N *11522:9 *C 49.676 55.740
*N *11522:10 *C 49.676 55.696
*N *11522:11 *C 50.892 55.696
*N *11522:12 *C 50.892 55.696

*CAP
0 *310:Y 0.001
1 *203:A3 0.001
2 *210:A1 0.03129911
3 *11522:3 0.009483119
4 *11522:4 0.02507292
5 *11522:5 0.1899203
6 *11522:6 0.1780367
7 *11522:7 0.04825855
8 *11522:8 0.1480515
9 *11522:9 0.1364764
10 *11522:10 0.08877665
11 *11522:11 0.04439106
12 *11522:12 0.001

*RES
0 *310:Y *11522:12 0.5
1 *11522:9 *11522:8 4.915179
2 *11522:10 *11522:9 0.25
3 *11522:10 *11522:7 1.9
4 *11522:8 *203:A3 0.5
5 *11522:6 *11522:5 7.958036
6 *11522:7 *11522:6 0.25
7 *11522:4 *210:A1 0.946
8 *11522:5 *11522:4 0.5
9 *11522:12 *11522:11 0.25
10 *11522:12 *11522:3 0.2033333
11 *11522:11 *11522:10 2.171429

*END

*D_NET *11523 0.2893797 //LENGTH 3.737 DR

*CONN
*I *311:Y O *L 0.000 *C 68.676 18.760
*I *34:D I *L 0.547 *C 66.244 17.848
*N *11523:2 *C 66.244 17.848
*N *11523:3 *C 66.244 18.000
*N *11523:4 *C 66.244 18.000
*N *11523:5 *C 68.676 18.000
*N *11523:6 *C 68.676 18.044
*N *11523:7 *C 68.676 18.729

*CAP
0 *311:Y 0.001
1 *34:D 0.001
2 *11523:2 0.01051169
3 *11523:3 0.009509849
4 *11523:4 0.09903588
5 *11523:5 0.09953068
6 *11523:6 0.03437147
7 *11523:7 0.03442008

*RES
0 *311:Y *11523:7 0.5
1 *11523:7 *11523:6 1.224107
2 *11523:6 *11523:5 0.25
3 *11523:5 *11523:4 4.342857
4 *11523:3 *11523:2 0.1916667
5 *11523:4 *11523:3 0.25
6 *11523:2 *34:D 0.5

*END

*D_NET *11524 0.3574136 //LENGTH 3.773 DR

*CONN
*I *312:Y O *L 0.000 *C 50.284 59.040
*I *208:A1 I *L 0.513 *C 47.561 59.404
*N *11524:2 *C 47.718 59.404
*N *11524:3 *C 47.760 59.404
*N *11524:4 *C 47.700 59.344
*N *11524:5 *C 47.700 59.344
*N *11524:6 *C 50.284 59.344
*N *11524:7 *C 50.284 59.301
*N *11524:8 *C 50.284 59.084

*CAP
0 *312:Y 0.001
1 *208:A1 0.03359909
2 *11524:2 0.0273729
3 *11524:3 0.02751067
4 *11524:4 0.01426815
5 *11524:5 0.1038269
6 *11524:6 0.1003
7 *11524:7 0.02512502
8 *11524:8 0.02441086

*RES
0 *312:Y *11524:8 0.5
1 *11524:8 *11524:7 0.3875
2 *11524:7 *11524:6 0.25
3 *11524:6 *11524:5 4.614286
4 *11524:4 *11524:3 0.1
5 *11524:5 *11524:4 0.25
6 *11524:2 *208:A1 0.2616667
7 *11524:3 *11524:2 0.5

*END

*D_NET *11525 0.3449835 //LENGTH 3.465 DR

*CONN
*I *313:Y O *L 0.000 *C 48.460 58.248
*I *206:A1 I *L 0.513 *C 45.664 57.884
*N *11525:2 *C 45.664 57.884
*N *11525:3 *C 45.724 58.085
*N *11525:4 *C 45.724 58.128
*N *11525:5 *C 48.460 58.128
*N *11525:6 *C 48.460 58.128
*N *11525:7 *C 48.460 58.248

*CAP
0 *313:Y 0.001
1 *206:A1 0.001
2 *11525:2 0.02796038
3 *11525:3 0.01615622
4 *11525:4 0.1408411
5 *11525:5 0.1390933
6 *11525:6 0.009762831
7 *11525:7 0.009169764

*RES
0 *313:Y *11525:7 0.5
1 *11525:7 *11525:6 0.1916667
2 *11525:6 *11525:5 0.25
3 *11525:5 *11525:4 4.885715
4 *11525:3 *11525:2 0.3580357
5 *11525:4 *11525:3 0.25
6 *11525:2 *206:A1 0.5

*END

*D_NET *11526 0.2887308 //LENGTH 2.656 DR

*CONN
*I *314:Y O *L 0.000 *C 46.636 47.092
*I *233:D I *L 0.547 *C 45.724 45.908
*N *11526:2 *C 45.724 45.908
*N *11526:3 *C 46.788 45.968
*N *11526:4 *C 46.788 47.109
*N *11526:5 *C 46.788 47.152

*CAP
0 *314:Y 0.01600605
1 *233:D 0.001
2 *11526:2 0.04495404
3 *11526:3 0.1247737
4 *11526:4 0.0737574
5 *11526:5 0.02823961

*RES
0 *314:Y *11526:5 0.304
1 *11526:5 *11526:4 0.5
2 *11526:4 *11526:3 2.036607
3 *11526:2 *233:D 0.5
4 *11526:3 *11526:2 1.9

*END

*D_NET *11527 0.329693 //LENGTH 3.085 DR

*CONN
*I *315:Y O *L 0.000 *C 24.596 27.028
*I *166:D I *L 0.547 *C 23.684 25.844
*N *11527:2 *C 23.684 25.888
*N *11527:3 *C 23.684 26.165
*N *11527:4 *C 23.684 26.208
*N *11527:5 *C 24.748 26.208
*N *11527:6 *C 24.748 26.252
*N *11527:7 *C 24.808 27.028
*N *11527:8 *C 24.763 27.028

*CAP
0 *315:Y 0.02415427
1 *166:D 0.001
2 *11527:2 0.02948673
3 *11527:3 0.0284925
4 *11527:4 0.05196927
5 *11527:5 0.05357955
6 *11527:6 0.0527468
7 *11527:7 0.07033577
8 *11527:8 0.01792807

*RES
0 *315:Y *11527:8 0.3340001
1 *11527:8 *11527:7 0.5
2 *11527:7 *11527:6 1.386607
3 *11527:6 *11527:5 0.25
4 *11527:5 *11527:4 1.9
5 *11527:3 *11527:2 0.4946429
6 *11527:4 *11527:3 0.25
7 *11527:2 *166:D 0.5

*END

*D_NET *11528 0.2092628 //LENGTH 1.840 DR

*CONN
*I *316:Y O *L 0.000 *C 51.044 25.356
*I *224:A2 I *L 0.512 *C 51.361 24.140
*N *11528:2 *C 51.408 24.140
*N *11528:3 *C 51.408 24.140
*N *11528:4 *C 51.288 25.356
*N *11528:5 *C 51.243 25.356

*CAP
0 *316:Y 0.02589683
1 *224:A2 0.01304201
2 *11528:2 0.006815816
3 *11528:3 0.07017215
4 *11528:4 0.07366537
5 *11528:5 0.01967063

*RES
0 *316:Y *11528:5 0.3980001
1 *11528:5 *11528:4 0.5
2 *11528:4 *11528:3 2.171429
3 *11528:2 *224:A2 0.08181819
4 *11528:3 *11528:2 0.5

*END

*D_NET *11529 0.2488812 //LENGTH 2.537 DR

*CONN
*I *317:Y O *L 0.000 *C 40.404 40.410
*I *152:A4 I *L 0.543 *C 39.400 39.511
*N *11529:2 *C 39.400 39.511
*N *11529:3 *C 39.340 39.845
*N *11529:4 *C 39.340 39.888
*N *11529:5 *C 40.404 39.888
*N *11529:6 *C 40.404 39.932
*N *11529:7 *C 40.344 40.404
*N *11529:8 *C 40.344 40.404

*CAP
0 *317:Y 0.01879792
1 *152:A4 0.001
2 *11529:2 0.03963038
3 *11529:3 0.0255771
4 *11529:4 0.04744423
5 *11529:5 0.0472688
6 *11529:6 0.02319825
7 *11529:7 0.03339278
8 *11529:8 0.01257173

*RES
0 *317:Y *11529:8 0.08181819
1 *11529:8 *11529:7 0.5
2 *11529:7 *11529:6 0.84375
3 *11529:6 *11529:5 0.25
4 *11529:5 *11529:4 1.9
5 *11529:3 *11529:2 0.8732143
6 *11529:4 *11529:3 0.25
7 *11529:2 *152:A4 0.5

*END

*D_NET *11530 0.4291825 //LENGTH 5.031 DR

*CONN
*I *318:Y O *L 0.000 *C 22.164 41.291
*I *177:A1 I *L 0.513 *C 18.120 41.164
*N *11530:2 *C 18.120 41.164
*N *11530:3 *C 18.060 41.104
*N *11530:4 *C 18.060 41.104
*N *11530:5 *C 22.164 41.104
*N *11530:6 *C 22.164 41.147
*N *11530:7 *C 22.224 41.291
*N *11530:8 *C 22.224 41.291

*CAP
0 *318:Y 0.02065941
1 *177:A1 0.001
2 *11530:2 0.02211639
3 *11530:3 0.01204413
4 *11530:4 0.1654726
5 *11530:5 0.1625061
6 *11530:6 0.008625675
7 *11530:7 0.02232492
8 *11530:8 0.01443321

*RES
0 *318:Y *11530:8 0.1916666
1 *11530:8 *11530:7 0.5
2 *11530:7 *11530:6 0.2408333
3 *11530:6 *11530:5 0.25
4 *11530:5 *11530:4 7.328572
5 *11530:3 *11530:2 0.1
6 *11530:4 *11530:3 0.25
7 *11530:2 *177:A1 0.5

*END

*D_NET *11531 0.4304925 //LENGTH 4.909 DR

*CONN
*I *319:Y O *L 0.000 *C 33.564 47.092
*I *161:D I *L 0.547 *C 30.828 45.908
*N *11531:2 *C 30.828 45.952
*N *11531:3 *C 30.828 46.229
*N *11531:4 *C 30.828 46.272
*N *11531:5 *C 33.716 46.272
*N *11531:6 *C 33.716 46.316
*N *11531:7 *C 33.776 47.092
*N *11531:8 *C 33.731 47.092

*CAP
0 *319:Y 0.02352621
1 *161:D 0.001
2 *11531:2 0.02107399
3 *11531:3 0.02007976
4 *11531:4 0.1306237
5 *11531:5 0.1288387
6 *11531:6 0.03755827
7 *11531:7 0.05049182
8 *11531:8 0.01730002

*RES
0 *319:Y *11531:8 0.3340001
1 *11531:8 *11531:7 0.5
2 *11531:7 *11531:6 1.386607
3 *11531:6 *11531:5 0.25
4 *11531:5 *11531:4 5.157143
5 *11531:3 *11531:2 0.4946429
6 *11531:4 *11531:3 0.25
7 *11531:2 *161:D 0.5

*END

*D_NET *11532 0.3030691 //LENGTH 3.301 DR

*CONN
*I *320:Y O *L 0.000 *C 32.348 28.700
*I *194:A4 I *L 0.605 *C 31.132 27.604
*N *11532:2 *C 31.132 27.648
*N *11532:3 *C 31.132 28.293
*N *11532:4 *C 31.132 28.336
*N *11532:5 *C 32.500 28.336
*N *11532:6 *C 32.500 28.380
*N *11532:7 *C 32.560 28.700
*N *11532:8 *C 32.515 28.700

*CAP
0 *320:Y 0.02191623
1 *194:A4 0.001
2 *11532:2 0.04315786
3 *11532:3 0.04147184
4 *11532:4 0.06840456
5 *11532:5 0.06831301
6 *11532:6 0.01526735
7 *11532:7 0.02784818
8 *11532:8 0.01569003

*RES
0 *320:Y *11532:8 0.334
1 *11532:8 *11532:7 0.5
2 *11532:7 *11532:6 0.5723215
3 *11532:6 *11532:5 0.25
4 *11532:5 *11532:4 2.442857
5 *11532:3 *11532:2 1.151786
6 *11532:4 *11532:3 0.25
7 *11532:2 *194:A4 0.5

*END

*D_NET *11533 0.2737137 //LENGTH 2.425 DR

*CONN
*I *321:Y O *L 0.000 *C 22.164 32.809
*I *173:A1 I *L 0.540 *C 20.784 32.804
*N *11533:2 *C 20.736 32.804
*N *11533:3 *C 20.736 32.804
*N *11533:4 *C 20.796 32.635
*N *11533:5 *C 20.796 32.592
*N *11533:6 *C 22.164 32.592
*N *11533:7 *C 22.164 32.592
*N *11533:8 *C 22.164 32.744
*N *11533:9 *C 22.164 32.744

*CAP
0 *321:Y 0.02034041
1 *173:A1 0.01368311
2 *11533:2 0.007456919
3 *11533:3 0.02599029
4 *11533:4 0.01483604
5 *11533:5 0.07430656
6 *11533:6 0.07708693
7 *11533:7 0.0126268
8 *11533:8 0.01327236
9 *11533:9 0.01411422

*RES
0 *321:Y *11533:9 0.08181819
1 *11533:9 *11533:8 0.5
2 *11533:8 *11533:7 0.1916667
3 *11533:7 *11533:6 0.25
4 *11533:6 *11533:5 2.442857
5 *11533:4 *11533:3 0.2825
6 *11533:5 *11533:4 0.25
7 *11533:2 *173:A1 0.08181818
8 *11533:3 *11533:2 0.5

*END

*D_NET *11534 0.2923505 //LENGTH 2.143 DR

*CONN
*I *322:Y O *L 0.000 *C 44.660 58.796
*I *202:A1 I *L 0.513 *C 44.144 57.884
*N *11534:2 *C 44.144 57.884
*N *11534:3 *C 44.204 58.813
*N *11534:4 *C 44.204 58.856
*N *11534:5 *C 44.660 58.736
*N *11534:6 *C 44.660 58.736
*N *11534:7 *C 44.600 58.796
*N *11534:8 *C 44.600 58.796

*CAP
0 *322:Y 0.01857893
1 *202:A1 0.001
2 *11534:2 0.07886104
3 *11534:3 0.06501742
4 *11534:4 0.03896139
5 *11534:5 0.03590825
6 *11534:6 0.01438245
7 *11534:7 0.02728827
8 *11534:8 0.01235273

*RES
0 *322:Y *11534:8 0.1916667
1 *11534:8 *11534:7 0.5
2 *11534:7 *11534:6 0.1
3 *11534:6 *11534:5 0.25
4 *11534:5 *11534:4 0.8142858
5 *11534:3 *11534:2 1.658036
6 *11534:4 *11534:3 0.25
7 *11534:2 *202:A1 0.5

*END

*D_NET *11535 1.496736 //LENGTH 16.213 DR

*CONN
*I *323:Y O *L 0.000 *C 47.092 44.144
*I *117:A1 I *L 0.541 *C 34.464 41.164
*N *11535:2 *C 47.092 44.022
*N *11535:3 *C 34.416 41.164
*N *11535:4 *C 34.416 41.164
*N *11535:5 *C 34.476 44.101
*N *11535:6 *C 34.476 44.144
*N *11535:7 *C 47.092 44.144
*N *11535:8 *C 47.092 44.144

*CAP
0 *323:Y 0.001
1 *117:A1 0.01480048
2 *11535:2 0.013976
3 *11535:3 0.008574285
4 *11535:4 0.1594331
5 *11535:5 0.1511582
6 *11535:6 0.569385
7 *11535:7 0.5728377
8 *11535:8 0.005571178

*RES
0 *323:Y *11535:8 0.5
1 *11535:8 *11535:7 0.25
2 *11535:8 *11535:2 0.2033333
3 *11535:7 *11535:6 22.52857
4 *11535:5 *11535:4 5.24375
5 *11535:6 *11535:5 0.25
6 *11535:3 *117:A1 0.08181819
7 *11535:4 *11535:3 0.5

*END

*D_NET *11536 0.3460251 //LENGTH 3.343 DR

*CONN
*I *324:Y O *L 0.000 *C 29.004 35.632
*I *171:A2 I *L 0.512 *C 27.712 34.257
*N *11536:2 *C 29.004 35.510
*N *11536:3 *C 27.788 34.202
*N *11536:4 *C 27.788 34.263
*N *11536:5 *C 27.788 35.589
*N *11536:6 *C 27.788 35.632
*N *11536:7 *C 29.004 35.632
*N *11536:8 *C 29.004 35.632

*CAP
0 *324:Y 0.001
1 *171:A2 0.0196515
2 *11536:2 0.01153097
3 *11536:3 0.01342531
4 *11536:4 0.09378672
5 *11536:5 0.09289627
6 *11536:6 0.053611
7 *11536:7 0.05594191
8 *11536:8 0.004181393

*RES
0 *324:Y *11536:8 0.5
1 *11536:8 *11536:7 0.25
2 *11536:8 *11536:2 0.2033333
3 *11536:7 *11536:6 2.171429
4 *11536:5 *11536:4 2.366965
5 *11536:6 *11536:5 0.25
6 *11536:3 *171:A2 0.2416667
7 *11536:4 *11536:3 0.5

*END

*D_NET *11537 2.000912 //LENGTH 18.612 DR

*CONN
*I *325:Y O *L 0.000 *C 50.588 42.076
*I *133:A2 I *L 0.467 *C 43.444 44.548
*I *112:A2 I *L 0.492 *C 40.252 44.496
*I *128:A2 I *L 0.467 *C 51.338 39.380
*N *11537:4 *C 51.288 39.340
*N *11537:5 *C 51.288 39.340
*N *11537:6 *C 51.348 39.280
*N *11537:7 *C 51.348 39.280
*N *11537:8 *C 50.740 39.280
*N *11537:9 *C 50.740 39.324
*N *11537:10 *C 40.252 44.326
*N *11537:11 *C 40.252 44.448
*N *11537:12 *C 40.252 44.448
*N *11537:13 *C 40.252 44.448
*N *11537:14 *C 43.444 44.448
*N *11537:15 *C 43.444 44.448
*N *11537:16 *C 43.444 44.448
*N *11537:17 *C 43.444 41.756
*N *11537:18 *C 43.444 41.712
*N *11537:19 *C 50.740 41.712
*N *11537:20 *C 50.740 41.712
*N *11537:21 *C 50.740 42.093
*N *11537:22 *C 50.740 42.136

*CAP
0 *325:Y 0.01621328
1 *133:A2 0.01653897
2 *112:A2 0.0141277
3 *128:A2 0.01386184
4 *11537:4 0.007635648
5 *11537:5 0.01225086
6 *11537:6 0.01398437
7 *11537:7 0.0274693
8 *11537:8 0.03306299
9 *11537:9 0.1822739
10 *11537:10 0.01809452
11 *11537:11 0.007901508
12 *11537:12 0.01141251
13 *11537:13 0.1471376
14 *11537:14 0.1419723
15 *11537:15 0.01031277
16 *11537:16 0.1890907
17 *11537:17 0.1827361
18 *11537:18 0.3399807
19 *11537:19 0.3371646
20 *11537:20 0.2218764
21 *11537:21 0.02676318
22 *11537:22 0.02904981

*RES
0 *325:Y *11537:22 0.304
1 *11537:15 *133:A2 0.1916667
2 *11537:16 *11537:15 0.5
3 *11537:16 *11537:14 0.25
4 *11537:17 *11537:16 5.085715
5 *11537:18 *11537:17 0.25
6 *11537:20 *11537:19 0.25
7 *11537:20 *11537:9 4.265179
8 *11537:19 *11537:18 13.02857
9 *11537:9 *11537:8 0.25
10 *11537:8 *11537:7 1.085714
11 *11537:6 *11537:5 0.2466667
12 *11537:7 *11537:6 0.25
13 *11537:4 *128:A2 0.1618182
14 *11537:5 *11537:4 0.5
15 *11537:22 *11537:21 0.5
16 *11537:21 *11537:20 0.6794644
17 *11537:14 *11537:13 5.7
18 *11537:12 *11537:11 0.5
19 *11537:12 *11537:10 0.2033333
20 *11537:13 *11537:12 0.25
21 *11537:11 *112:A2 0.08181818

*END

*D_NET *11538 0.298223 //LENGTH 2.868 DR

*CONN
*I *326:Y O *L 0.000 *C 51.348 27.180
*I *316:A I *L 0.564 *C 50.436 25.964
*N *11538:2 *C 50.436 26.008
*N *11538:3 *C 50.436 27.077
*N *11538:4 *C 50.436 27.120
*N *11538:5 *C 51.348 27.120
*N *11538:6 *C 51.348 27.120
*N *11538:7 *C 51.408 27.180
*N *11538:8 *C 51.408 27.180

*CAP
0 *326:Y 0.01418862
1 *316:A 0.001
2 *11538:2 0.08512422
3 *11538:3 0.08285017
4 *11538:4 0.04014036
5 *11538:5 0.04130218
6 *11538:6 0.009957734
7 *11538:7 0.0156973
8 *11538:8 0.007962422

*RES
0 *326:Y *11538:8 0.1916667
1 *11538:8 *11538:7 0.5
2 *11538:7 *11538:6 0.1333334
3 *11538:6 *11538:5 0.25
4 *11538:5 *11538:4 1.628572
5 *11538:3 *11538:2 2.129464
6 *11538:4 *11538:3 0.25
7 *11538:2 *316:A 0.5

*END

*D_NET *11539 0.2731928 //LENGTH 2.885 DR

*CONN
*I *327:Y O *L 0.000 *C 26.572 31.496
*I *195:A1 I *L 0.565 *C 24.761 30.980
*N *11539:2 *C 24.808 30.980
*N *11539:3 *C 24.808 30.980
*N *11539:4 *C 24.748 31.333
*N *11539:5 *C 24.748 31.376
*N *11539:6 *C 26.572 31.376
*N *11539:7 *C 26.572 31.376
*N *11539:8 *C 26.572 31.496

*CAP
0 *327:Y 0.001
1 *195:A1 0.01853679
2 *11539:2 0.0123106
3 *11539:3 0.03887623
4 *11539:4 0.02843226
5 *11539:5 0.07818063
6 *11539:6 0.07618964
7 *11539:7 0.01019255
8 *11539:8 0.009474145

*RES
0 *327:Y *11539:8 0.5
1 *11539:8 *11539:7 0.1916667
2 *11539:7 *11539:6 0.25
3 *11539:6 *11539:5 3.257143
4 *11539:4 *11539:3 0.6294643
5 *11539:5 *11539:4 0.25
6 *11539:2 *195:A1 0.08181819
7 *11539:3 *11539:2 0.5

*END

*D_NET *11540 0.4717116 //LENGTH 5.023 DR

*CONN
*I *328:Y O *L 0.000 *C 44.204 64.759
*I *201:D I *L 0.547 *C 42.216 62.693
*N *11540:2 *C 42.059 62.688
*N *11540:3 *C 42.016 62.688
*N *11540:4 *C 42.076 64.469
*N *11540:5 *C 42.076 64.512
*N *11540:6 *C 44.204 64.512
*N *11540:7 *C 44.204 64.555
*N *11540:8 *C 44.204 64.717

*CAP
0 *328:Y 0.001
1 *201:D 0.02136548
2 *11540:2 0.01513929
3 *11540:3 0.1229466
4 *11540:4 0.1056495
5 *11540:5 0.08122233
6 *11540:6 0.08155381
7 *11540:7 0.02183678
8 *11540:8 0.02099774

*RES
0 *328:Y *11540:8 0.5
1 *11540:8 *11540:7 0.27
2 *11540:7 *11540:6 0.25
3 *11540:6 *11540:5 3.8
4 *11540:4 *11540:3 3.179465
5 *11540:5 *11540:4 0.25
6 *11540:2 *201:D 0.2616667
7 *11540:3 *11540:2 0.5

*END

*D_NET *11541 0.698715 //LENGTH 6.272 DR

*CONN
*I *329:Y O *L 0.000 *C 21.100 38.732
*I *176:A3 I *L 0.554 *C 19.276 38.416
*I *318:A I *L 0.424 *C 19.417 41.164
*N *11541:3 *C 19.259 41.164
*N *11541:4 *C 19.216 41.164
*N *11541:5 *C 19.276 38.368
*N *11541:6 *C 19.276 38.368
*N *11541:7 *C 19.276 38.368
*N *11541:8 *C 20.492 38.428
*N *11541:9 *C 20.492 38.732
*N *11541:10 *C 21.100 38.672
*N *11541:11 *C 21.100 38.672
*N *11541:12 *C 21.040 38.732
*N *11541:13 *C 21.040 38.732

*CAP
0 *329:Y 0.01849828
1 *176:A3 0.01604971
2 *318:A 0.02450204
3 *11541:3 0.01827585
4 *11541:4 0.184423
5 *11541:5 0.009823516
6 *11541:6 0.1677742
7 *11541:7 0.06373836
8 *11541:8 0.07176314
9 *11541:9 0.04415019
10 *11541:10 0.03653858
11 *11541:11 0.01084736
12 *11541:12 0.02005878
13 *11541:13 0.01227209

*RES
0 *329:Y *11541:13 0.1916667
1 *11541:5 *176:A3 0.08181818
2 *11541:6 *11541:5 0.5
3 *11541:6 *11541:4 4.992857
4 *11541:7 *11541:6 0.25
5 *11541:11 *11541:10 0.25
6 *11541:10 *11541:9 1.085714
7 *11541:13 *11541:12 0.5
8 *11541:12 *11541:11 0.1
9 *11541:3 *318:A 0.3608334
10 *11541:4 *11541:3 0.5
11 *11541:8 *11541:7 2.171429
12 *11541:9 *11541:8 0.5428572

*END

*D_NET *11542 0.2003332 //LENGTH 1.656 DR

*CONN
*I *330:Y O *L 0.000 *C 39.188 40.404
*I *152:A1 I *L 0.483 *C 39.035 39.393
*N *11542:2 *C 38.976 39.340
*N *11542:3 *C 38.976 39.340
*N *11542:4 *C 39.036 40.421
*N *11542:5 *C 39.036 40.464

*CAP
0 *330:Y 0.01243851
1 *152:A1 0.01907988
2 *11542:2 0.01285369
3 *11542:3 0.07274444
4 *11542:4 0.06264879
5 *11542:5 0.0205679

*RES
0 *330:Y *11542:5 0.304
1 *11542:5 *11542:4 0.5
2 *11542:4 *11542:3 1.929464
3 *11542:2 *152:A1 0.08181818
4 *11542:3 *11542:2 0.5

*END

*D_NET *11543 0.2802832 //LENGTH 2.988 DR

*CONN
*I *331:Y O *L 0.000 *C 23.228 32.044
*I *321:A I *L 0.564 *C 21.708 32.652
*N *11543:2 *C 21.708 32.609
*N *11543:3 *C 21.708 32.028
*N *11543:4 *C 21.708 31.984
*N *11543:5 *C 23.228 31.984
*N *11543:6 *C 23.228 31.984
*N *11543:7 *C 23.168 32.044
*N *11543:8 *C 23.168 32.044

*CAP
0 *331:Y 0.01840568
1 *321:A 0.001
2 *11543:2 0.03679024
3 *11543:3 0.03451618
4 *11543:4 0.07548913
5 *11543:5 0.07644057
6 *11543:6 0.008424704
7 *11543:7 0.01703718
8 *11543:8 0.01217949

*RES
0 *331:Y *11543:8 0.1916667
1 *11543:8 *11543:7 0.5
2 *11543:7 *11543:6 0.1
3 *11543:6 *11543:5 0.25
4 *11543:5 *11543:4 2.714286
5 *11543:3 *11543:2 1.086607
6 *11543:4 *11543:3 0.25
7 *11543:2 *321:A 0.5

*END

